cubic diamond Ge                        
   5.6748542148543777     
     0.0000000000000000    0.4818325377253106    0.4818325377253106
     0.4818325377253106    0.0000000000000000    0.4818325377253106
     0.4818325377253106    0.4818325377253106    0.0000000000000000
   Ge
     2
Direct
  0.8750000000000000  0.8750000000000000  0.8750000000000000
  0.1250000000000000  0.1250000000000000  0.1250000000000000

  0.00000000E+00  0.00000000E+00  0.00000000E+00
  0.00000000E+00  0.00000000E+00  0.00000000E+00
