Global Parameters
NCORE = 1
KPAR = 8
NSIM = 4
LPLANE = .FALSE.

ISTART =  0            (Read existing wavefunction, if there)
ISPIN  =  1            (Non-Spin polarised DFT)
# ICHARG =  11         (Non-self-consistent: GGA/LDA band structures)
LREAL  =  .FALSE.       (Projection operators: automatic)
ENCUT  =  450          (Cut-off energy for plane wave basis set, in eV)
PREC   =  Accurate   (Precision level: Normal or Accurate, set Accurate when perform structure lattice relaxation calculation)
LWAVE  = .TRUE.        (Write WAVECAR or not)
LCHARG = .TRUE.        (Write CHGCAR or not)
ADDGRID= .TRUE.        (Increase grid, helps GGA convergence)

Static Calculation
ISMEAR =  0            (gaussian smearing method)
SIGMA  =  0.05         (please check the width of the smearing)
LORBIT =  11           (PAW radii for projected DOS)
NEDOS  =  1000         (DOSCAR points)
NELM   =  60           (Max electronic SCF steps)
EDIFF  =  1E-06        (SCF energy convergence, in eV)
 
Spin-Orbit Coupling Calculation
LSORBIT    = .TRUE.    (Activate SOC)
GGA_COMPAT = .FALSE.   (Apply spherical cutoff on gradient field)
VOSKOWN    =  1        (Enhances the magnetic moments and the magnetic energies)
LMAXMIX    =  4        (For d elements increase LMAXMIX to 4, f: LMAXMIX = 6)
ISYM       =  -1       (Switch symmetry off)
# SAXIS    =  0 0 1    (Direction of the magnetic field)
# MAGMOM   =  0 0 3    (Set this parameters manually, Local magnetic moment parallel to SAXIS, 3*NIONS*1.0 for non-collinear magnetic systems)
# NBANDS   =           (Set this parameters manually, 2 * number of bands of collinear-run)
 
