cubic diamond Si                        
   5.4299999999999997     
    -0.0000000000000000    0.5032132318947273    0.5032132318947273
     0.5032132318947273    0.0000000000000000    0.5032132318947273
     0.5032132318947273    0.5032132318947273   -0.0000000000000000
   Si
     2
Direct
  0.8750000000000000  0.8750000000000000  0.8750000000000000
  0.1250000000000000  0.1250000000000000  0.1250000000000000

  0.00000000E+00  0.00000000E+00  0.00000000E+00
  0.00000000E+00  0.00000000E+00  0.00000000E+00
