K-Spacing Value to Generate K-Mesh: 0.010
0
Gamma
  32  32  32
0.0  0.0  0.0
