Converted by xsd2pos.py                 
   1.0000000000000000     
     8.0009132300000001    0.0000000000000000    0.0000000000000000
     0.0000000000000000    8.0009132300000001    0.0000000000000000
     0.0000000000000000    0.0000000000000000   32.7293749999999974
   Ge   H 
    36     8
Selective dynamics
Direct
  0.0000000000000000  0.0000000000000000  0.4783928800000012   F   F   F
  0.0173187819799381  0.0082548076506015  0.6572057066251844   T   T   T
  0.2500000000000000  0.2500000000000000  0.3919644099999999   F   F   F
  0.2500082062666067  0.2490986509247435  0.5646201227158514   T   T   T
  0.2500000000000000  0.0000000000000000  0.3487501700000024   F   F   F
  0.2500000000000000  0.0000000000000000  0.5216071199999988   F   F   F
  0.2499844910392923  0.0721442246222850  0.7084798474197456   T   T   T
  0.0000000000000000  0.2500000000000000  0.4351786399999966   F   F   F
  0.9999995947836382  0.2500002857781567  0.6082540781864765   T   T   T
  0.5000000000000000  0.0000000000000000  0.4783928800000012   F   F   F
  0.4826370271560663  0.0082250695494324  0.6572090237658728   T   T   T
  0.7500000000000000  0.2500000000000000  0.3919644099999999   F   F   F
  0.7499904227149656  0.2509023437026698  0.5646201644215338   T   T   T
  0.7500000000000000  0.0000000000000000  0.3487501700000024   F   F   F
  0.7500000000000000  0.0000000000000000  0.5216071199999988   F   F   F
  0.7500061317357094  0.1261931098903375  0.6816415217130967   T   T   T
  0.5000000000000000  0.2500000000000000  0.4351786399999966   F   F   F
  0.4999994610624583  0.2500017375366070  0.6082529453411567   T   T   T
  0.0000000000000000  0.5000000000000000  0.4783928800000012   F   F   F
  0.9826822802046067  0.4917459550286551  0.6572054711821735   T   T   T
  0.2500000000000000  0.7500000000000000  0.3919644099999999   F   F   F
  0.2499968621080626  0.7488790890883479  0.5680297456313852   T   T   T
  0.2500000000000000  0.5000000000000000  0.3487501700000024   F   F   F
  0.2500000000000000  0.5000000000000000  0.5216071199999988   F   F   F
  0.2499944954432749  0.3738067788076478  0.6816417262684098   T   T   T
  0.0000000000000000  0.7500000000000000  0.4351786399999966   F   F   F
  0.0000006423260643  0.7500000717662800  0.6140796075262216   T   T   T
  0.5000000000000000  0.5000000000000000  0.4783928800000012   F   F   F
  0.5173641342591750  0.4917760294512377  0.6572100717724325   T   T   T
  0.7500000000000000  0.7500000000000000  0.3919644099999999   F   F   F
  0.7500036081061765  0.7511206960794041  0.5680296887837102   T   T   T
  0.7500000000000000  0.5000000000000000  0.3487501700000024   F   F   F
  0.7500000000000000  0.5000000000000000  0.5216071199999988   F   F   F
  0.7500188929973532  0.4278551193046241  0.7084801875030919   T   T   T
  0.5000000000000000  0.7500000000000000  0.4351786399999966   F   F   F
  0.5000009954251539  0.7499989022789038  0.6140816236231927   T   T   T
  0.4051166400000028  0.0000000000000000  0.3219371799999990   F   F   F
  0.0948833599999972  0.0000000000000000  0.3219371799999990   F   F   F
  0.9051166400000028  0.0000000000000000  0.3219371799999990   F   F   F
  0.5948833599999972  0.0000000000000000  0.3219371799999990   F   F   F
  0.4051166400000028  0.5000000000000000  0.3219371799999990   F   F   F
  0.0948833599999972  0.5000000000000000  0.3219371799999990   F   F   F
  0.9051166400000028  0.5000000000000000  0.3219371799999990   F   F   F
  0.5948833599999972  0.5000000000000000  0.3219371799999990   F   F   F

  0.00000000E+00  0.00000000E+00  0.00000000E+00
  0.00000000E+00  0.00000000E+00  0.00000000E+00
  0.00000000E+00  0.00000000E+00  0.00000000E+00
  0.00000000E+00  0.00000000E+00  0.00000000E+00
  0.00000000E+00  0.00000000E+00  0.00000000E+00
  0.00000000E+00  0.00000000E+00  0.00000000E+00
  0.00000000E+00  0.00000000E+00  0.00000000E+00
  0.00000000E+00  0.00000000E+00  0.00000000E+00
  0.00000000E+00  0.00000000E+00  0.00000000E+00
  0.00000000E+00  0.00000000E+00  0.00000000E+00
  0.00000000E+00  0.00000000E+00  0.00000000E+00
  0.00000000E+00  0.00000000E+00  0.00000000E+00
  0.00000000E+00  0.00000000E+00  0.00000000E+00
  0.00000000E+00  0.00000000E+00  0.00000000E+00
  0.00000000E+00  0.00000000E+00  0.00000000E+00
  0.00000000E+00  0.00000000E+00  0.00000000E+00
  0.00000000E+00  0.00000000E+00  0.00000000E+00
  0.00000000E+00  0.00000000E+00  0.00000000E+00
  0.00000000E+00  0.00000000E+00  0.00000000E+00
  0.00000000E+00  0.00000000E+00  0.00000000E+00
  0.00000000E+00  0.00000000E+00  0.00000000E+00
  0.00000000E+00  0.00000000E+00  0.00000000E+00
  0.00000000E+00  0.00000000E+00  0.00000000E+00
  0.00000000E+00  0.00000000E+00  0.00000000E+00
  0.00000000E+00  0.00000000E+00  0.00000000E+00
  0.00000000E+00  0.00000000E+00  0.00000000E+00
  0.00000000E+00  0.00000000E+00  0.00000000E+00
  0.00000000E+00  0.00000000E+00  0.00000000E+00
  0.00000000E+00  0.00000000E+00  0.00000000E+00
  0.00000000E+00  0.00000000E+00  0.00000000E+00
  0.00000000E+00  0.00000000E+00  0.00000000E+00
  0.00000000E+00  0.00000000E+00  0.00000000E+00
  0.00000000E+00  0.00000000E+00  0.00000000E+00
  0.00000000E+00  0.00000000E+00  0.00000000E+00
  0.00000000E+00  0.00000000E+00  0.00000000E+00
  0.00000000E+00  0.00000000E+00  0.00000000E+00
  0.00000000E+00  0.00000000E+00  0.00000000E+00
  0.00000000E+00  0.00000000E+00  0.00000000E+00
  0.00000000E+00  0.00000000E+00  0.00000000E+00
  0.00000000E+00  0.00000000E+00  0.00000000E+00
  0.00000000E+00  0.00000000E+00  0.00000000E+00
  0.00000000E+00  0.00000000E+00  0.00000000E+00
  0.00000000E+00  0.00000000E+00  0.00000000E+00
  0.00000000E+00  0.00000000E+00  0.00000000E+00
