Ge(100) 8-layer slab clean              
   1.0000000000000000     
     8.0008999999999997    0.0000000000000000    0.0000000000000000
     0.0000000000000000    8.0008999999999997    0.0000000000000000
     0.0000000000000000    0.0000000000000000   24.9006000000000007
   Ge   H 
    32     8
Direct
  0.9999940565455790  0.9988505963355967  0.2906055245322909
  0.4999921753620623  0.4979670840812079  0.2914801822962751
  0.9999919489828654  0.0044982168920874  0.5293903728421933
  0.4999933532911313  0.5043636362764525  0.5298681193224133
  0.4999927878790796  0.9989120894531818  0.2906226300158420
  0.9999914109202285  0.4979323258185825  0.2915012486177058
  0.4999928312197227  0.0012336905381818  0.5294244231354103
  0.9999936759365160  0.5007321609459723  0.5298995969637424
  0.7500178375060327  0.2471202813365657  0.1731377863267522
  0.2499747556304757  0.7459488931978073  0.1737689374870310
  0.7501177188146324  0.2483589814693752  0.4094752381240645
  0.2500708080830177  0.7483049123933394  0.4088156246206824
  0.2499569620999289  0.2471370647175051  0.1731367279451156
  0.7500151112253567  0.7459334019610799  0.1737678399522695
  0.2498693359303247  0.2483531580274476  0.4094750488143915
  0.7499141999867991  0.7483113782525092  0.4088155077257549
  0.2500005615748969  0.9973498157515277  0.2314529596076898
  0.7500250691183017  0.4961281358653110  0.2322068026339491
  0.2499839920912166  0.9972269063490282  0.4674382771143966
  0.7499968772603673  0.4990402843773846  0.4674890490854564
 -0.0000138363914365  0.2548272913301227  0.1158401667538461
  0.4999943073143249  0.7522959160322724  0.1165479268615275
  0.9999932107762557  0.2474810146648548  0.3496687890529661
  0.4999922333765123  0.7494317191111122  0.3491880090245862
  0.4999888128060404  0.2530639727523337  0.1158368033619694
  0.9999967055416360  0.7540835096709843  0.1165490956075109
  0.4999940445213351  0.2475571074961715  0.3497081304625137
  0.9999932915976624  0.7494198173440993  0.3492081341495069
  0.7499857799622774  0.9973328067400801  0.2314535608390908
  0.2499579169247389  0.4961409546908729  0.2322068589914623
  0.7500010694668314  0.9972334595990605  0.4674382309212984
  0.2499906295282501  0.4990332792724099  0.4674890144144369
  0.9999880104252802  0.4149500890141348  0.0818888565302535
  0.9999944160298603  0.1139284546170258  0.0737908881995262
  0.9999942975461833  0.9121248920342971  0.0816282841796256
  0.0000045609284970  0.6107571433889459  0.0753871915045914
  0.4999864477841695  0.1099277515102941  0.0746105497333468
  0.5000029226815695  0.4111424382769497  0.0808797592165278
  0.5000021244318119  0.9080937290084063  0.0805750508141399
  0.4999875852896208  0.6066816394053379  0.0762628022177933

  0.00000000E+00  0.00000000E+00  0.00000000E+00
  0.00000000E+00  0.00000000E+00  0.00000000E+00
  0.00000000E+00  0.00000000E+00  0.00000000E+00
  0.00000000E+00  0.00000000E+00  0.00000000E+00
  0.00000000E+00  0.00000000E+00  0.00000000E+00
  0.00000000E+00  0.00000000E+00  0.00000000E+00
  0.00000000E+00  0.00000000E+00  0.00000000E+00
  0.00000000E+00  0.00000000E+00  0.00000000E+00
  0.00000000E+00  0.00000000E+00  0.00000000E+00
  0.00000000E+00  0.00000000E+00  0.00000000E+00
  0.00000000E+00  0.00000000E+00  0.00000000E+00
  0.00000000E+00  0.00000000E+00  0.00000000E+00
  0.00000000E+00  0.00000000E+00  0.00000000E+00
  0.00000000E+00  0.00000000E+00  0.00000000E+00
  0.00000000E+00  0.00000000E+00  0.00000000E+00
  0.00000000E+00  0.00000000E+00  0.00000000E+00
  0.00000000E+00  0.00000000E+00  0.00000000E+00
  0.00000000E+00  0.00000000E+00  0.00000000E+00
  0.00000000E+00  0.00000000E+00  0.00000000E+00
  0.00000000E+00  0.00000000E+00  0.00000000E+00
  0.00000000E+00  0.00000000E+00  0.00000000E+00
  0.00000000E+00  0.00000000E+00  0.00000000E+00
  0.00000000E+00  0.00000000E+00  0.00000000E+00
  0.00000000E+00  0.00000000E+00  0.00000000E+00
  0.00000000E+00  0.00000000E+00  0.00000000E+00
  0.00000000E+00  0.00000000E+00  0.00000000E+00
  0.00000000E+00  0.00000000E+00  0.00000000E+00
  0.00000000E+00  0.00000000E+00  0.00000000E+00
  0.00000000E+00  0.00000000E+00  0.00000000E+00
  0.00000000E+00  0.00000000E+00  0.00000000E+00
  0.00000000E+00  0.00000000E+00  0.00000000E+00
  0.00000000E+00  0.00000000E+00  0.00000000E+00
  0.00000000E+00  0.00000000E+00  0.00000000E+00
  0.00000000E+00  0.00000000E+00  0.00000000E+00
  0.00000000E+00  0.00000000E+00  0.00000000E+00
  0.00000000E+00  0.00000000E+00  0.00000000E+00
  0.00000000E+00  0.00000000E+00  0.00000000E+00
  0.00000000E+00  0.00000000E+00  0.00000000E+00
  0.00000000E+00  0.00000000E+00  0.00000000E+00
  0.00000000E+00  0.00000000E+00  0.00000000E+00
