Ge(100) 8-layer slab clean              
   1.0000000000000000     
     8.0008999999999997    0.0000000000000000    0.0000000000000000
     0.0000000000000000    8.0008999999999997    0.0000000000000000
     0.0000000000000000    0.0000000000000000   24.9006000000000007
   Ge   H 
    32     8
Direct
 -0.0000075446074064 -0.0013000547245631  0.2943397815979998
  0.4999856698641645  0.4991788489250474  0.2897737942388811
 -0.0000051307973762  0.0248688522636328  0.5321533876148897
  0.4999950239779534  0.4773727015692288  0.5310185827405757
  0.4999981297039947 -0.0013887788459590  0.2941168357024620
 -0.0000137018718443  0.4991983565833739  0.2896174353909431
  0.4999967382887356  0.0244724127502860  0.5322004983457637
 -0.0000074813956373  0.4769153242158511  0.5310310442891900
  0.7500999695865487  0.2441427395153551  0.1733778046409513
  0.2498159130446976  0.7501181110360872  0.1739946865865973
  0.7502285977296690  0.2485965518075217  0.4106554696979478
  0.2497660230704746  0.7503637586264298  0.4085552960997981
  0.2498995088697531  0.2441417097701916  0.1733810812986997
  0.7501788727689841  0.7501146511702672  0.1739958890695370
  0.2497516861425031  0.2485882438482070  0.4106556672854664
  0.7502120949233522  0.7503723381283217  0.4085553831478997
  0.2497311139897217 -0.0016561281451157  0.2343735480241889
  0.7498195803523101  0.4960874554297998  0.2312066649781362
  0.2499587284600537 -0.0062835759514103  0.4688577010878470
  0.7500432738260236  0.5048968196153210  0.4681441518813401
  0.0000053801450206  0.2487594335201928  0.1147464860525798
  0.5000004587605771  0.7572244512872488  0.1151771442665395
 -0.0000082205225725  0.2541938665372248  0.3507443501317535
  0.4999912611392520  0.7442146832359247  0.3500359249926231
  0.4999982164565395  0.2474428525212969  0.1147891621183071
 -0.0000014805363858  0.7596775357026058  0.1151299465543881
  0.4999893757815986  0.2538263539448884  0.3507963420244950
 -0.0000123512236598  0.7439722309406235  0.3499822379452935
  0.7502640067863793 -0.0016564765120512  0.2343707664464266
  0.2501557835756744  0.4960880981366832  0.2312069036296680
  0.7500342452844568 -0.0062777141439174  0.4688573406846848
  0.2499440373378725  0.5048833775449942  0.4681444957305352
  0.9999846724006037  0.4055937264344254  0.0785843708184578
 -0.0000316229457012  0.1115253083858682  0.0721064789811590
  0.9999929658246055  0.9118094588944083  0.0784115285222439
  0.0000086496087623  0.6175736306750907  0.0731102458049405
  0.4999547251659565  0.1088451347646407  0.0726893548461487
  0.5000251901307043  0.4017945476003174  0.0777238377004860
  0.5000121012057284  0.9071637725066390  0.0775393353971699
  0.4999655396979071  0.6137553904350226  0.0737790436329806

  0.00000000E+00  0.00000000E+00  0.00000000E+00
  0.00000000E+00  0.00000000E+00  0.00000000E+00
  0.00000000E+00  0.00000000E+00  0.00000000E+00
  0.00000000E+00  0.00000000E+00  0.00000000E+00
  0.00000000E+00  0.00000000E+00  0.00000000E+00
  0.00000000E+00  0.00000000E+00  0.00000000E+00
  0.00000000E+00  0.00000000E+00  0.00000000E+00
  0.00000000E+00  0.00000000E+00  0.00000000E+00
  0.00000000E+00  0.00000000E+00  0.00000000E+00
  0.00000000E+00  0.00000000E+00  0.00000000E+00
  0.00000000E+00  0.00000000E+00  0.00000000E+00
  0.00000000E+00  0.00000000E+00  0.00000000E+00
  0.00000000E+00  0.00000000E+00  0.00000000E+00
  0.00000000E+00  0.00000000E+00  0.00000000E+00
  0.00000000E+00  0.00000000E+00  0.00000000E+00
  0.00000000E+00  0.00000000E+00  0.00000000E+00
  0.00000000E+00  0.00000000E+00  0.00000000E+00
  0.00000000E+00  0.00000000E+00  0.00000000E+00
  0.00000000E+00  0.00000000E+00  0.00000000E+00
  0.00000000E+00  0.00000000E+00  0.00000000E+00
  0.00000000E+00  0.00000000E+00  0.00000000E+00
  0.00000000E+00  0.00000000E+00  0.00000000E+00
  0.00000000E+00  0.00000000E+00  0.00000000E+00
  0.00000000E+00  0.00000000E+00  0.00000000E+00
  0.00000000E+00  0.00000000E+00  0.00000000E+00
  0.00000000E+00  0.00000000E+00  0.00000000E+00
  0.00000000E+00  0.00000000E+00  0.00000000E+00
  0.00000000E+00  0.00000000E+00  0.00000000E+00
  0.00000000E+00  0.00000000E+00  0.00000000E+00
  0.00000000E+00  0.00000000E+00  0.00000000E+00
  0.00000000E+00  0.00000000E+00  0.00000000E+00
  0.00000000E+00  0.00000000E+00  0.00000000E+00
  0.00000000E+00  0.00000000E+00  0.00000000E+00
  0.00000000E+00  0.00000000E+00  0.00000000E+00
  0.00000000E+00  0.00000000E+00  0.00000000E+00
  0.00000000E+00  0.00000000E+00  0.00000000E+00
  0.00000000E+00  0.00000000E+00  0.00000000E+00
  0.00000000E+00  0.00000000E+00  0.00000000E+00
  0.00000000E+00  0.00000000E+00  0.00000000E+00
  0.00000000E+00  0.00000000E+00  0.00000000E+00
