Converted by xsd2pos.py
1.0
     8.00091400     0.00000000     0.00000000
     0.00000000     8.00091400     0.00000000
     0.00000000     0.00000000    32.72937400
  Ge  H
  36  12
Selective
Direct
     0.00000000     0.00000000     0.47839300   F F F
     0.00000000     0.00000000     0.65125000   T T T
     0.25000000     0.25000000     0.39196400   F F F
     0.25000000     0.25000000     0.56482100   T T T
     0.25000000     0.00000000     0.34875000   F F F
     0.25000000     0.00000000     0.52160700   F F F
     0.24997371     0.09712516     0.68683090   T T T
     0.00000000     0.25000000     0.43517900   F F F
     0.00000000     0.25000000     0.60803600   T T T
     0.50000000     0.00000000     0.47839300   F F F
     0.50000000     0.00000000     0.65125000   T T T
     0.75000000     0.25000000     0.39196400   F F F
     0.75000000     0.25000000     0.56482100   T T T
     0.75000000     0.00000000     0.34875000   F F F
     0.75000000     0.00000000     0.52160700   F F F
     0.74995027     0.09796369     0.68663417   T T T
     0.50000000     0.25000000     0.43517900   F F F
     0.50000000     0.25000000     0.60803600   T T T
     0.00000000     0.50000000     0.47839300   F F F
     0.00000000     0.50000000     0.65125000   T T T
     0.25000000     0.75000000     0.39196400   F F F
     0.25000000     0.75000000     0.56482100   T T T
     0.25000000     0.50000000     0.34875000   F F F
     0.25000000     0.50000000     0.52160700   F F F
     0.25000011     0.40199051     0.68665122   T T T
     0.00000000     0.75000000     0.43517900   F F F
     0.00000000     0.75000000     0.60803600   T T T
     0.50000000     0.50000000     0.47839300   F F F
     0.50000000     0.50000000     0.65125000   T T T
     0.75000000     0.75000000     0.39196400   F F F
     0.75000000     0.75000000     0.56482100   T T T
     0.75000000     0.50000000     0.34875000   F F F
     0.75000000     0.50000000     0.52160700   F F F
     0.74994375     0.40283404     0.68682225   T T T
     0.50000000     0.75000000     0.43517900   F F F
     0.50000000     0.75000000     0.60803600   T T T
     0.40511700     0.00000000     0.32193700   F F F
     0.09488300     0.00000000     0.32193700   F F F
     0.90511700     0.00000000     0.32193700   F F F
     0.59488300     0.00000000     0.32193700   F F F
     0.40511700     0.50000000     0.32193700   F F F
     0.09488300     0.50000000     0.32193700   F F F
     0.90511700     0.50000000     0.32193700   F F F
     0.59488300     0.50000000     0.32193700   F F F
     0.24983941     0.46972302     0.73234549   T T T
     0.24963979     0.02977290     0.73251242   T T T
     0.74986659     0.02989891     0.73246359   T T T
     0.74987221     0.47042280     0.73266997   T T T
