Converted by xsd2pos.py
1.0
     8.12465692     0.00000000     0.00000000
     0.00000000     8.12465692     0.00000000
     0.00000000     0.00000000    25.05375000
  Ge  H
  28  4
Selective
Direct
     0.00000000     0.00000000     0.05732675   F F F
     0.00000000     0.00000000     0.28663374   T T T
     0.25000000     0.25000000     0.17198024   F F F
     0.25000000     0.25000000     0.40128723   T T T
     0.25000000     0.00000000     0.22930699   T T T
     0.00000000     0.25000000     0.11465349   F F F
     0.00000000     0.25000000     0.34396048   T T T
     0.50000000     0.00000000     0.05732675   F F F
     0.50000000     0.00000000     0.28663374   T T T
     0.75000000     0.25000000     0.17198024   F F F
     0.75000000     0.25000000     0.40128723   T T T
     0.75000000     0.00000000     0.22930699   T T T
     0.50000000     0.25000000     0.11465349   F F F
     0.50000000     0.25000000     0.34396048   T T T
     0.00000000     0.50000000     0.05732675   F F F
     0.00000000     0.50000000     0.28663374   T T T
     0.25000000     0.75000000     0.17198024   F F F
     0.25000000     0.75000000     0.40128723   T T T
     0.25000000     0.50000000     0.22930699   T T T
     0.00000000     0.75000000     0.11465349   F F F
     0.00000000     0.75000000     0.34396048   T T T
     0.50000000     0.50000000     0.05732675   F F F
     0.50000000     0.50000000     0.28663374   T T T
     0.75000000     0.75000000     0.17198024   F F F
     0.75000000     0.75000000     0.40128723   T T T
     0.75000000     0.50000000     0.22930699   T T T
     0.50000000     0.75000000     0.11465349   F F F
     0.50000000     0.75000000     0.34396048   T T T
     0.25000000     0.00000000     0.00000000   F F F
     0.75000000     0.00000000     0.00000000   F F F
     0.25000000     0.50000000     0.00000000   F F F
     0.75000000     0.50000000     0.00000000   F F F
