Converted by xsd2pos.py                 
   1.0000000000000000     
     8.1246569199999996    0.0000000000000000    0.0000000000000000
     0.0000000000000000    8.1246569199999996    0.0000000000000000
     0.0000000000000000    0.0000000000000000   25.0537500000000009
   Ge   H 
    28     4
Selective dynamics
Direct
  0.0000000000000000  0.0000000000000000  0.0573267500000014   F   F   F
  0.0000000000000000  0.0000000000000000  0.2866711767873948   T   T   T
  0.2500000000000000  0.2500000000000000  0.1719802400000034   F   F   F
  0.2500000000000000  0.2500000000000000  0.4042649359597916   T   T   T
  0.2500000000000000  0.0000000000000000  0.2295794424901031   T   T   T
  0.0000000000000000  0.2500000000000000  0.1146534900000020   F   F   F
  0.0000000000000000  0.2500000000000000  0.3447627557091219   T   T   T
  0.5000000000000000  0.0000000000000000  0.0573267500000014   F   F   F
  0.5000000000000000 -0.0000000000000000  0.2866711767873948   T   T   T
  0.7500000000000000  0.2500000000000000  0.1719802400000034   F   F   F
  0.7500000000000000  0.2500000000000000  0.4042649359597916   T   T   T
  0.7500000000000000 -0.0000000000000000  0.2295794424901031   T   T   T
  0.5000000000000000  0.2500000000000000  0.1146534900000020   F   F   F
  0.5000000000000000  0.2500000000000000  0.3447627557091219   T   T   T
  0.0000000000000000  0.5000000000000000  0.0573267500000014   F   F   F
  0.0000000000000000  0.5000000000000000  0.2866711767873948   T   T   T
  0.2500000000000000  0.7500000000000000  0.1719802400000034   F   F   F
  0.2500000000000000  0.7500000000000000  0.4042649359597916   T   T   T
  0.2500000000000000  0.5000000000000000  0.2295794424901031   T   T   T
  0.0000000000000000  0.7500000000000000  0.1146534900000020   F   F   F
  0.0000000000000000  0.7500000000000000  0.3447627557091219   T   T   T
  0.5000000000000000  0.5000000000000000  0.0573267500000014   F   F   F
  0.5000000000000000  0.5000000000000000  0.2866711767873948   T   T   T
  0.7500000000000000  0.7500000000000000  0.1719802400000034   F   F   F
  0.7500000000000000  0.7500000000000000  0.4042649359597916   T   T   T
  0.7500000000000000  0.5000000000000000  0.2295794424901031   T   T   T
  0.5000000000000000  0.7500000000000000  0.1146534900000020   F   F   F
  0.5000000000000000  0.7500000000000000  0.3447627557091219   T   T   T
  0.2500000000000000  0.0000000000000000  0.0000000000000000   F   F   F
  0.7500000000000000  0.0000000000000000  0.0000000000000000   F   F   F
  0.2500000000000000  0.5000000000000000  0.0000000000000000   F   F   F
  0.7500000000000000  0.5000000000000000  0.0000000000000000   F   F   F

  0.00000000E+00  0.00000000E+00  0.00000000E+00
  0.00000000E+00  0.00000000E+00  0.00000000E+00
  0.00000000E+00  0.00000000E+00  0.00000000E+00
  0.00000000E+00  0.00000000E+00  0.00000000E+00
  0.00000000E+00  0.00000000E+00  0.00000000E+00
  0.00000000E+00  0.00000000E+00  0.00000000E+00
  0.00000000E+00  0.00000000E+00  0.00000000E+00
  0.00000000E+00  0.00000000E+00  0.00000000E+00
  0.00000000E+00  0.00000000E+00  0.00000000E+00
  0.00000000E+00  0.00000000E+00  0.00000000E+00
  0.00000000E+00  0.00000000E+00  0.00000000E+00
  0.00000000E+00  0.00000000E+00  0.00000000E+00
  0.00000000E+00  0.00000000E+00  0.00000000E+00
  0.00000000E+00  0.00000000E+00  0.00000000E+00
  0.00000000E+00  0.00000000E+00  0.00000000E+00
  0.00000000E+00  0.00000000E+00  0.00000000E+00
  0.00000000E+00  0.00000000E+00  0.00000000E+00
  0.00000000E+00  0.00000000E+00  0.00000000E+00
  0.00000000E+00  0.00000000E+00  0.00000000E+00
  0.00000000E+00  0.00000000E+00  0.00000000E+00
  0.00000000E+00  0.00000000E+00  0.00000000E+00
  0.00000000E+00  0.00000000E+00  0.00000000E+00
  0.00000000E+00  0.00000000E+00  0.00000000E+00
  0.00000000E+00  0.00000000E+00  0.00000000E+00
  0.00000000E+00  0.00000000E+00  0.00000000E+00
  0.00000000E+00  0.00000000E+00  0.00000000E+00
  0.00000000E+00  0.00000000E+00  0.00000000E+00
  0.00000000E+00  0.00000000E+00  0.00000000E+00
  0.00000000E+00  0.00000000E+00  0.00000000E+00
  0.00000000E+00  0.00000000E+00  0.00000000E+00
  0.00000000E+00  0.00000000E+00  0.00000000E+00
  0.00000000E+00  0.00000000E+00  0.00000000E+00
