Ge(100) 8-layer slab clean
1.0
     8.00090000     0.00000000     0.00000000
     0.00000000     8.00090000     0.00000000
     0.00000000     0.00000000    24.90060000
  Ge  H
  32  8
Direct
     0.00000000     0.00000000     0.29088000  F F F
     0.50000000     0.50000000     0.29088000  F F F
     0.00000000     0.00000000     0.51808000  F F F
     0.50000000     0.50000000     0.51808000  F F F
     0.50000000     0.00000000     0.29088000  F F F
     0.00000000     0.50000000     0.29088000  F F F
     0.50000000     0.00000000     0.51808000  F F F
     0.00000000     0.50000000     0.51808000  F F F
     0.75000000     0.25000000     0.17728000  F F F
     0.25000000     0.75000000     0.17728000  F F F
     0.75000000     0.25000000     0.40448000  F F F
     0.25000000     0.75000000     0.40448000  F F F
     0.25000000     0.25000000     0.17728000  F F F
     0.75000000     0.75000000     0.17728000  F F F
     0.25000000     0.25000000     0.40448000  F F F
     0.75000000     0.75000000     0.40448000  F F F
     0.25000000     0.00000000     0.23408000  F F F
     0.75000000     0.50000000     0.23408000  F F F
     0.25000000     0.00000000     0.46128000  F F F
     0.75000000     0.50000000     0.46128000  F F F
     0.99997000     0.23766000     0.12124000  F F F
     0.49998000     0.77066000     0.12148000  F F F
     0.00000000     0.25000000     0.34768000  F F F
     0.50000000     0.75000000     0.34768000  F F F
     0.50001000     0.23481000     0.12131000  F F F
     0.00001000     0.77050000     0.12149000  F F F
     0.50000000     0.25000000     0.34768000  F F F
     0.00000000     0.75000000     0.34768000  F F F
     0.75000000     0.00000000     0.23408000  F F F
     0.25000000     0.50000000     0.23408000  F F F
     0.75000000     0.00000000     0.46128000  F F F
     0.25000000     0.50000000     0.46128000  F F F
     0.99981000     0.39156000     0.08084000  T T T
     0.00002000     0.06806000     0.08796000  T T T
     0.99997000     0.94492000     0.09090000  T T T
     0.00004000     0.62280000     0.07877000  T T T
     0.50002000     0.06366000     0.08885000  T T T
     0.49996000     0.38713000     0.08029000  T T T
     0.49998000     0.94498000     0.09083000  T T T
     0.49995000     0.62247000     0.07893000  T T T
