0.040   8   8   8   29  0.050  100    6   22    8   24   19   16   11           # Parameters to Generate KPOINTS (Do NOT Edit This Line)
   129
Reciprocal lattice
    0.00000000000000    0.00000000000000    0.00000000000000     1
    0.12500000000000    0.00000000000000    0.00000000000000     8
    0.25000000000000    0.00000000000000    0.00000000000000     8
    0.37500000000000    0.00000000000000    0.00000000000000     8
    0.50000000000000    0.00000000000000    0.00000000000000     4
    0.12500000000000    0.12500000000000    0.00000000000000     6
    0.25000000000000    0.12500000000000    0.00000000000000    24
    0.37500000000000    0.12500000000000    0.00000000000000    24
    0.50000000000000    0.12500000000000    0.00000000000000    24
   -0.37500000000000    0.12500000000000    0.00000000000000    24
   -0.25000000000000    0.12500000000000    0.00000000000000    24
   -0.12500000000000    0.12500000000000    0.00000000000000    12
    0.25000000000000    0.25000000000000    0.00000000000000     6
    0.37500000000000    0.25000000000000    0.00000000000000    24
    0.50000000000000    0.25000000000000    0.00000000000000    24
   -0.37500000000000    0.25000000000000    0.00000000000000    24
   -0.25000000000000    0.25000000000000    0.00000000000000    12
    0.37500000000000    0.37500000000000    0.00000000000000     6
    0.50000000000000    0.37500000000000    0.00000000000000    24
   -0.37500000000000    0.37500000000000    0.00000000000000    12
    0.50000000000000    0.50000000000000    0.00000000000000     3
    0.37500000000000    0.25000000000000    0.12500000000000    24
    0.50000000000000    0.25000000000000    0.12500000000000    48
   -0.37500000000000    0.25000000000000    0.12500000000000    24
    0.50000000000000    0.37500000000000    0.12500000000000    24
   -0.37500000000000    0.37500000000000    0.12500000000000    48
   -0.25000000000000    0.37500000000000    0.12500000000000    24
   -0.37500000000000    0.50000000000000    0.12500000000000    12
   -0.25000000000000    0.50000000000000    0.25000000000000     6
    0.00000000000000    0.00000000000000    0.00000000000000     0
    0.02380952380952    0.00000000000000    0.02380952380952     0
    0.04761904761905    0.00000000000000    0.04761904761905     0
    0.07142857142857    0.00000000000000    0.07142857142857     0
    0.09523809523810    0.00000000000000    0.09523809523810     0
    0.11904761904762    0.00000000000000    0.11904761904762     0
    0.14285714285714    0.00000000000000    0.14285714285714     0
    0.16666666666667    0.00000000000000    0.16666666666667     0
    0.19047619047619    0.00000000000000    0.19047619047619     0
    0.21428571428571    0.00000000000000    0.21428571428571     0
    0.23809523809524    0.00000000000000    0.23809523809524     0
    0.26190476190476    0.00000000000000    0.26190476190476     0
    0.28571428571429    0.00000000000000    0.28571428571429     0
    0.30952380952381    0.00000000000000    0.30952380952381     0
    0.33333333333333    0.00000000000000    0.33333333333333     0
    0.35714285714286    0.00000000000000    0.35714285714286     0
    0.38095238095238    0.00000000000000    0.38095238095238     0
    0.40476190476190    0.00000000000000    0.40476190476190     0
    0.42857142857143    0.00000000000000    0.42857142857143     0
    0.45238095238095    0.00000000000000    0.45238095238095     0
    0.47619047619048    0.00000000000000    0.47619047619048     0
    0.50000000000000    0.00000000000000    0.50000000000000     0
    0.50000000000000    0.00000000000000    0.50000000000000     0
    0.51785714285714    0.03571428571429    0.51785714285714     0
    0.53571428571429    0.07142857142857    0.53571428571429     0
    0.55357142857143    0.10714285714286    0.55357142857143     0
    0.57142857142857    0.14285714285714    0.57142857142857     0
    0.58928571428571    0.17857142857143    0.58928571428571     0
    0.60714285714286    0.21428571428571    0.60714285714286     0
    0.62500000000000    0.25000000000000    0.62500000000000     0
    0.37500000000000    0.37500000000000    0.75000000000000     0
    0.35869565217391    0.35869565217391    0.71739130434783     0
    0.34239130434783    0.34239130434783    0.68478260869565     0
    0.32608695652174    0.32608695652174    0.65217391304348     0
    0.30978260869565    0.30978260869565    0.61956521739130     0
    0.29347826086957    0.29347826086957    0.58695652173913     0
    0.27717391304348    0.27717391304348    0.55434782608696     0
    0.26086956521739    0.26086956521739    0.52173913043478     0
    0.24456521739130    0.24456521739130    0.48913043478261     0
    0.22826086956522    0.22826086956522    0.45652173913043     0
    0.21195652173913    0.21195652173913    0.42391304347826     0
    0.19565217391304    0.19565217391304    0.39130434782609     0
    0.17934782608696    0.17934782608696    0.35869565217391     0
    0.16304347826087    0.16304347826087    0.32608695652174     0
    0.14673913043478    0.14673913043478    0.29347826086957     0
    0.13043478260870    0.13043478260870    0.26086956521739     0
    0.11413043478261    0.11413043478261    0.22826086956522     0
    0.09782608695652    0.09782608695652    0.19565217391304     0
    0.08152173913043    0.08152173913043    0.16304347826087     0
    0.06521739130435    0.06521739130435    0.13043478260870     0
    0.04891304347826    0.04891304347826    0.09782608695652     0
    0.03260869565217    0.03260869565217    0.06521739130435     0
    0.01630434782609    0.01630434782609    0.03260869565217     0
    0.00000000000000    0.00000000000000    0.00000000000000     0
    0.00000000000000    0.00000000000000    0.00000000000000     0
    0.02777777777778    0.02777777777778    0.02777777777778     0
    0.05555555555556    0.05555555555556    0.05555555555556     0
    0.08333333333333    0.08333333333333    0.08333333333333     0
    0.11111111111111    0.11111111111111    0.11111111111111     0
    0.13888888888889    0.13888888888889    0.13888888888889     0
    0.16666666666667    0.16666666666667    0.16666666666667     0
    0.19444444444444    0.19444444444444    0.19444444444444     0
    0.22222222222222    0.22222222222222    0.22222222222222     0
    0.25000000000000    0.25000000000000    0.25000000000000     0
    0.27777777777778    0.27777777777778    0.27777777777778     0
    0.30555555555556    0.30555555555556    0.30555555555556     0
    0.33333333333333    0.33333333333333    0.33333333333333     0
    0.36111111111111    0.36111111111111    0.36111111111111     0
    0.38888888888889    0.38888888888889    0.38888888888889     0
    0.41666666666667    0.41666666666667    0.41666666666667     0
    0.44444444444444    0.44444444444444    0.44444444444444     0
    0.47222222222222    0.47222222222222    0.47222222222222     0
    0.50000000000000    0.50000000000000    0.50000000000000     0
    0.50000000000000    0.50000000000000    0.50000000000000     0
    0.50000000000000    0.48333333333333    0.51666666666667     0
    0.50000000000000    0.46666666666667    0.53333333333333     0
    0.50000000000000    0.45000000000000    0.55000000000000     0
    0.50000000000000    0.43333333333333    0.56666666666667     0
    0.50000000000000    0.41666666666667    0.58333333333333     0
    0.50000000000000    0.40000000000000    0.60000000000000     0
    0.50000000000000    0.38333333333333    0.61666666666667     0
    0.50000000000000    0.36666666666667    0.63333333333333     0
    0.50000000000000    0.35000000000000    0.65000000000000     0
    0.50000000000000    0.33333333333333    0.66666666666667     0
    0.50000000000000    0.31666666666667    0.68333333333333     0
    0.50000000000000    0.30000000000000    0.70000000000000     0
    0.50000000000000    0.28333333333333    0.71666666666667     0
    0.50000000000000    0.26666666666667    0.73333333333333     0
    0.50000000000000    0.25000000000000    0.75000000000000     0
    0.50000000000000    0.25000000000000    0.75000000000000     0
    0.50000000000000    0.22500000000000    0.72500000000000     0
    0.50000000000000    0.20000000000000    0.70000000000000     0
    0.50000000000000    0.17500000000000    0.67500000000000     0
    0.50000000000000    0.15000000000000    0.65000000000000     0
    0.50000000000000    0.12500000000000    0.62500000000000     0
    0.50000000000000    0.10000000000000    0.60000000000000     0
    0.50000000000000    0.07500000000000    0.57500000000000     0
    0.50000000000000    0.05000000000000    0.55000000000000     0
    0.50000000000000    0.02500000000000    0.52500000000000     0
    0.50000000000000    0.00000000000000    0.50000000000000     0
