Converted by xsd2pos.py
1.0
     5.65750000     0.00000000     0.00000000
     0.00000000     5.65750000     0.00000000
     0.00000000     0.00000000    32.72937500
  Ge  H
  18  4
Selective
Direct
     0.00000000     0.00000000     0.47839288   F F F
     0.00000000     0.00000000     0.65124983   T T T
     0.50000000     0.50000000     0.47839288   F F F
     0.50000000     0.50000000     0.65124983   T T T
     0.00000000     0.50000000     0.39196441   F F F
     0.00000000     0.50000000     0.56482136   T T T
     0.50000000     0.00000000     0.39196441   F F F
     0.50000000     0.00000000     0.56482136   T T T
     0.25000000     0.75000000     0.43517864   F F F
     0.25000000     0.75000000     0.60803559   T T T
     0.25000000     0.25000000     0.34875017   F F F
     0.25000000     0.25000000     0.52160712   F F F
     0.25000000     0.25000000     0.69446407   T T T
     0.75000000     0.75000000     0.34875017   F F F
     0.75000000     0.75000000     0.52160712   F F F
     0.75000000     0.75000000     0.69446407   T T T
     0.75000000     0.25000000     0.43517864   F F F
     0.75000000     0.25000000     0.60803559   T T T
     0.40511664     0.40511664     0.32193718   F F F
     0.09488336     0.09488336     0.32193718   F F F
     0.90511664     0.90511664     0.32193718   F F F
     0.59488336     0.59488336     0.32193718   F F F
