SYSTEM = Ge slab HSE06 SCF
NCORE  = 8

ISTART = 1
ICHARG = 0
ISPIN  = 1

ISYM = 0
ENCUT  = 450
PREC   = Normal
ADDGRID = .TRUE.
LWAVE  = .TRUE.
LCHARG = .TRUE.
LREAL= Auto

ISMEAR = 0
SIGMA  = 0.05
EDIFF  = 1E-5
NELM   = 100

AMIX   = 0.2
BMIX   = 0.0001
AMIN   = 0.01

#LDIPOL = .TRUE.
#IDIPOL = 3

GGA      = PE
LHFCALC  = .TRUE.
AEXX     = 0.25
HFSCREEN = 0.2
ALGO     = ALL
TIME     = 0.15
PRECFOCK = Normal
HFRCUT   = -1