0.040   4   4   1    7  0.050   37    3   11   11   15           # Parameters to Generate KPOINTS (Do NOT Edit This Line)
    44
Reciprocal lattice
    0.00000000000000    0.00000000000000    0.00000000000000     1
    0.25000000000000    0.00000000000000    0.00000000000000     4
    0.50000000000000    0.00000000000000    0.00000000000000     2
    0.25000000000000    0.25000000000000    0.00000000000000     2
    0.50000000000000    0.25000000000000    0.00000000000000     4
   -0.25000000000000    0.25000000000000    0.00000000000000     2
    0.50000000000000    0.50000000000000    0.00000000000000     1
    0.00000000000000    0.00000000000000    0.00000000000000     0
    0.05000000000000    0.00000000000000    0.00000000000000     0
    0.10000000000000    0.00000000000000    0.00000000000000     0
    0.15000000000000    0.00000000000000    0.00000000000000     0
    0.20000000000000    0.00000000000000    0.00000000000000     0
    0.25000000000000    0.00000000000000    0.00000000000000     0
    0.30000000000000    0.00000000000000    0.00000000000000     0
    0.35000000000000    0.00000000000000    0.00000000000000     0
    0.40000000000000    0.00000000000000    0.00000000000000     0
    0.45000000000000    0.00000000000000    0.00000000000000     0
    0.50000000000000    0.00000000000000    0.00000000000000     0
    0.50000000000000    0.00000000000000    0.00000000000000     0
    0.50000000000000    0.05000000000000    0.00000000000000     0
    0.50000000000000    0.10000000000000    0.00000000000000     0
    0.50000000000000    0.15000000000000    0.00000000000000     0
    0.50000000000000    0.20000000000000    0.00000000000000     0
    0.50000000000000    0.25000000000000    0.00000000000000     0
    0.50000000000000    0.30000000000000    0.00000000000000     0
    0.50000000000000    0.35000000000000    0.00000000000000     0
    0.50000000000000    0.40000000000000    0.00000000000000     0
    0.50000000000000    0.45000000000000    0.00000000000000     0
    0.50000000000000    0.50000000000000    0.00000000000000     0
    0.50000000000000    0.50000000000000    0.00000000000000     0
    0.46428571428571    0.46428571428571    0.00000000000000     0
    0.42857142857143    0.42857142857143    0.00000000000000     0
    0.39285714285714    0.39285714285714    0.00000000000000     0
    0.35714285714286    0.35714285714286    0.00000000000000     0
    0.32142857142857    0.32142857142857    0.00000000000000     0
    0.28571428571429    0.28571428571429    0.00000000000000     0
    0.25000000000000    0.25000000000000    0.00000000000000     0
    0.21428571428571    0.21428571428571    0.00000000000000     0
    0.17857142857143    0.17857142857143    0.00000000000000     0
    0.14285714285714    0.14285714285714    0.00000000000000     0
    0.10714285714286    0.10714285714286    0.00000000000000     0
    0.07142857142857    0.07142857142857    0.00000000000000     0
    0.03571428571429    0.03571428571429    0.00000000000000     0
    0.00000000000000    0.00000000000000    0.00000000000000     0
