Converted by xsd2pos.py                 
   1.0000000000000000     
     5.6574999999999998    0.0000000000000000    0.0000000000000000
     0.0000000000000000    5.6574999999999998    0.0000000000000000
     0.0000000000000000    0.0000000000000000   32.7293749999999974
   Ge   H 
    18     4
Selective dynamics
Direct
  0.0000000000000000  0.0000000000000000  0.4783928800000012   F   F   F
  0.0000016243917429  0.0000021586280994  0.6560804122905779   T   T   T
  0.5000000000000000  0.5000000000000000  0.4783928800000012   F   F   F
  0.5000026216033362  0.5000030368888915  0.6560804742269681   T   T   T
  0.0000000000000000  0.5000000000000000  0.3919644099999999   F   F   F
  0.0000000241470204  0.5000001064693720  0.5662699674938239   T   T   T
  0.5000000000000000  0.0000000000000000  0.3919644099999999   F   F   F
  0.4999999186977533  0.0000000860032117  0.5662699291631981   T   T   T
  0.2500000000000000  0.7500000000000000  0.4351786399999966   F   F   F
  0.2500000288631483  0.7500000773694424  0.6118799886684840   T   T   T
  0.2500000000000000  0.2500000000000000  0.3487501700000024   F   F   F
  0.2500000000000000  0.2500000000000000  0.5216071199999988   F   F   F
  0.2500038442639578  0.2500010952824567  0.7032754152654732   T   T   T
  0.7500000000000000  0.7500000000000000  0.3487501700000024   F   F   F
  0.7500000000000000  0.7500000000000000  0.5216071199999988   F   F   F
  0.7500018393653534  0.7500034216382190  0.7032756264387032   T   T   T
  0.7500000000000000  0.2500000000000000  0.4351786399999966   F   F   F
  0.7499996015143608  0.2500002280407756  0.6118799898801015   T   T   T
  0.4051166400000028  0.4051166400000028  0.3219371799999990   F   F   F
  0.0948833599999972  0.0948833599999972  0.3219371799999990   F   F   F
  0.9051166400000028  0.9051166400000028  0.3219371799999990   F   F   F
  0.5948833599999972  0.5948833599999972  0.3219371799999990   F   F   F

  0.00000000E+00  0.00000000E+00  0.00000000E+00
  0.00000000E+00  0.00000000E+00  0.00000000E+00
  0.00000000E+00  0.00000000E+00  0.00000000E+00
  0.00000000E+00  0.00000000E+00  0.00000000E+00
  0.00000000E+00  0.00000000E+00  0.00000000E+00
  0.00000000E+00  0.00000000E+00  0.00000000E+00
  0.00000000E+00  0.00000000E+00  0.00000000E+00
  0.00000000E+00  0.00000000E+00  0.00000000E+00
  0.00000000E+00  0.00000000E+00  0.00000000E+00
  0.00000000E+00  0.00000000E+00  0.00000000E+00
  0.00000000E+00  0.00000000E+00  0.00000000E+00
  0.00000000E+00  0.00000000E+00  0.00000000E+00
  0.00000000E+00  0.00000000E+00  0.00000000E+00
  0.00000000E+00  0.00000000E+00  0.00000000E+00
  0.00000000E+00  0.00000000E+00  0.00000000E+00
  0.00000000E+00  0.00000000E+00  0.00000000E+00
  0.00000000E+00  0.00000000E+00  0.00000000E+00
  0.00000000E+00  0.00000000E+00  0.00000000E+00
  0.00000000E+00  0.00000000E+00  0.00000000E+00
  0.00000000E+00  0.00000000E+00  0.00000000E+00
  0.00000000E+00  0.00000000E+00  0.00000000E+00
  0.00000000E+00  0.00000000E+00  0.00000000E+00
