Primitive Cell
  1.000000
    0.00000000000000    2.73431036628259    2.73431036628259
    2.73431036628259    0.00000000000000    2.73431036628259
    2.73431036628259    2.73431036628259    0.00000000000000
  Ge
   2
DIRECT
    0.5000000000000000    0.5000000000000000    0.5000000000000000    Ge1
    0.7500000000000000    0.7500000000000000    0.7500000000000000    Ge2
