Converted by xsd2pos.py
1.0
     7.95424418     0.00000000     0.00000000
     0.00000000     7.95424418     0.00000000
     0.00000000     0.00000000    27.65522514
  Ge  H
  36  8
Selective
Direct
     0.25000000     0.25000000     0.37288613   T T T
     0.25000000     0.25000000     0.57626542   F F F
     0.00009718     0.10084689     0.28416640   T T T
     0.00000000     0.00000000     0.47457578   F F F
     0.00000000     0.00000000     0.67795507   F F F
     0.25000000    -0.00000000     0.32204131   T T T
     0.25000000    -0.00000000     0.52542060   F F F
     0.00000000     0.25000000     0.42373096   T T T
     0.00000000     0.25000000     0.62711024   F F F
     0.75000000     0.25000000     0.37288613   T T T
     0.75000000     0.25000000     0.57626542   F F F
     0.49990282     0.10084619     0.28416619   T T T
     0.50000000     0.00000000     0.47457578   F F F
     0.50000000     0.00000000     0.67795507   F F F
     0.75000000    -0.00000000     0.32204131   T T T
     0.75000000     0.00000000     0.52542060   F F F
     0.50000000     0.25000000     0.42373096   T T T
     0.50000000     0.25000000     0.62711024   F F F
     0.25000000     0.75000000     0.37288613   T T T
     0.25000000     0.75000000     0.57626542   F F F
     0.00009718     0.39915456     0.28416612   T T T
     0.00000000     0.50000000     0.47457578   F F F
     0.00000000     0.50000000     0.67795507   F F F
     0.25000000     0.50000000     0.32204131   T T T
     0.25000000     0.50000000     0.52542060   F F F
     0.00000000     0.75000000     0.42373096   T T T
     0.00000000     0.75000000     0.62711024   F F F
     0.75000000     0.75000000     0.37288613   T T T
     0.75000000     0.75000000     0.57626542   F F F
     0.49990282     0.39915325     0.28416630   T T T
     0.50000000     0.50000000     0.47457578   F F F
     0.50000000     0.50000000     0.67795507   F F F
     0.75000000     0.50000000     0.32204131   T T T
     0.75000000     0.50000000     0.52542060   F F F
     0.50000000     0.75000000     0.42373096   T T T
     0.50000000     0.75000000     0.62711024   F F F
     0.15602674     0.00000000     0.70968768   F F F
     0.84397326     0.00000000     0.70968768   F F F
     0.65602674     0.00000000     0.70968768   F F F
     0.34397326     0.00000000     0.70968768   F F F
     0.15602674     0.50000000     0.70968768   F F F
     0.84397326     0.50000000     0.70968768   F F F
     0.65602674     0.50000000     0.70968768   F F F
     0.34397326     0.50000000     0.70968768   F F F
