Converted by xsd2pos.py
1.0
     8.00091323     0.00000000     0.00000000
     0.00000000     8.00091323     0.00000000
     0.00000000     0.00000000    32.72937500
  Ge  H
  36  8
Selective
Direct
     0.00000000     0.00000000     0.47839288   F F F
     0.00000000     0.00000000     0.65124983   T T T
     0.25000000     0.25000000     0.39196441   F F F
     0.25000000     0.25000000     0.56482136   T T T
     0.25000000    -0.00000000     0.34875017   F F F
     0.25000000    -0.00000000     0.52160712   F F F
     0.25012148     0.10191102     0.68243182   T T T
     0.00000000     0.25000000     0.43517864   F F F
     0.00000000     0.25000000     0.60803559   T T T
     0.50000000    -0.00000000     0.47839288   F F F
     0.50000000    -0.00000000     0.65124983   T T T
     0.75000000     0.25000000     0.39196441   F F F
     0.75000000     0.25000000     0.56482136   T T T
     0.75000000    -0.00000000     0.34875017   F F F
     0.75000000    -0.00000000     0.52160712   F F F
     0.74987852     0.10191071     0.68243187   T T T
     0.50000000     0.25000000     0.43517864   F F F
     0.50000000     0.25000000     0.60803559   T T T
     0.00000000     0.50000000     0.47839288   F F F
     0.00000000     0.50000000     0.65124983   T T T
     0.25000000     0.75000000     0.39196441   F F F
     0.25000000     0.75000000     0.56482136   T T T
     0.25000000     0.50000000     0.34875017   F F F
     0.25000000     0.50000000     0.52160712   F F F
     0.25012148     0.39808944     0.68243190   T T T
     0.00000000     0.75000000     0.43517864   F F F
     0.00000000     0.75000000     0.60803559   T T T
     0.50000000     0.50000000     0.47839288   F F F
     0.50000000     0.50000000     0.65124983   T T T
     0.75000000     0.75000000     0.39196441   F F F
     0.75000000     0.75000000     0.56482136   T T T
     0.75000000     0.50000000     0.34875017   F F F
     0.75000000     0.50000000     0.52160712   F F F
     0.74987852     0.39808912     0.68243184   T T T
     0.50000000     0.75000000     0.43517864   F F F
     0.50000000     0.75000000     0.60803559   T T T
     0.40511664     0.00000000     0.32193718   F F F
     0.09488336     0.00000000     0.32193718   F F F
     0.90511664     0.00000000     0.32193718   F F F
     0.59488336     0.00000000     0.32193718   F F F
     0.40511664     0.50000000     0.32193718   F F F
     0.09488336     0.50000000     0.32193718   F F F
     0.90511664     0.50000000     0.32193718   F F F
     0.59488336     0.50000000     0.32193718   F F F