SYSTEM = Ge slab pre-relax
NCORE = 8

ISTART = 1
ICHARG = 11
ISPIN  = 1

ISYM = 0
ENCUT  = 450
PREC   = Normal
LWAVE  = .FALSE.
LCHARG = .FALSE.
ADDGRID= .TRUE.

ALGO   = Normal
ISMEAR = 0
SIGMA  = 0.05
NELM   = 120
EDIFF  = 1E-5

AMIX   = 0.2
BMIX   = 0.0001
AMIN   = 0.01

LDIPOL = .TRUE.
IDIPOL = 3

LORBIT = 11
NEDOS  = 3001

