Converted by xsd2pos.py                 
   1.0000000000000000     
     5.6245000000000003    0.0000000000000000    0.0000000000000000
     0.0000000000000000    5.6245000000000003    0.0000000000000000
     0.0000000000000000    0.0000000000000000   27.6552251399999989
   Ge   H 
    18     4
Selective dynamics
Direct
 -0.0000003185216280  0.4999991699161471  0.3668261330595475   T   T   T
  0.0000000000000000  0.5000000000000000  0.5762654199999986   F   F   F
  0.5000000266838163 -0.0000003060929045  0.3668259264996133   T   T   T
  0.5000000000000000  0.0000000000000000  0.5762654199999986   F   F   F
  0.9999913748306523  0.0000033635844710  0.2580821773546424   T   T   T
  0.0000000000000000  0.0000000000000000  0.4745757800000021   F   F   F
  0.0000000000000000  0.0000000000000000  0.6779550700000030   F   F   F
  0.5000045502158718  0.4999904983713085  0.2580823492542820   T   T   T
  0.5000000000000000  0.5000000000000000  0.4745757800000021   F   F   F
  0.5000000000000000  0.5000000000000000  0.6779550700000030   F   F   F
  0.2499973814676572  0.2499975230848702  0.3142225310101016   T   T   T
  0.2500000000000000  0.2500000000000000  0.5254205999999968   F   F   F
  0.2499998686090245  0.7499998313007781  0.4212312908425851   T   T   T
  0.2500000000000000  0.7500000000000000  0.6271102400000004   F   F   F
  0.7499994177542202  0.2499994965256788  0.4212312884124148   T   T   T
  0.7500000000000000  0.2500000000000000  0.6271102400000004   F   F   F
  0.7499983005631451  0.7499974019133797  0.3142225859105455   T   T   T
  0.7500000000000000  0.7500000000000000  0.5254205999999968   F   F   F
  0.8460262799999967  0.8460262799999967  0.7092701600000026   F   F   F
  0.1539737200000033  0.1539737200000033  0.7092701600000026   F   F   F
  0.3460262799999967  0.3460262799999967  0.7092701600000026   F   F   F
  0.6539737200000033  0.6539737200000033  0.7092701600000026   F   F   F

  0.00000000E+00  0.00000000E+00  0.00000000E+00
  0.00000000E+00  0.00000000E+00  0.00000000E+00
  0.00000000E+00  0.00000000E+00  0.00000000E+00
  0.00000000E+00  0.00000000E+00  0.00000000E+00
  0.00000000E+00  0.00000000E+00  0.00000000E+00
  0.00000000E+00  0.00000000E+00  0.00000000E+00
  0.00000000E+00  0.00000000E+00  0.00000000E+00
  0.00000000E+00  0.00000000E+00  0.00000000E+00
  0.00000000E+00  0.00000000E+00  0.00000000E+00
  0.00000000E+00  0.00000000E+00  0.00000000E+00
  0.00000000E+00  0.00000000E+00  0.00000000E+00
  0.00000000E+00  0.00000000E+00  0.00000000E+00
  0.00000000E+00  0.00000000E+00  0.00000000E+00
  0.00000000E+00  0.00000000E+00  0.00000000E+00
  0.00000000E+00  0.00000000E+00  0.00000000E+00
  0.00000000E+00  0.00000000E+00  0.00000000E+00
  0.00000000E+00  0.00000000E+00  0.00000000E+00
  0.00000000E+00  0.00000000E+00  0.00000000E+00
  0.00000000E+00  0.00000000E+00  0.00000000E+00
  0.00000000E+00  0.00000000E+00  0.00000000E+00
  0.00000000E+00  0.00000000E+00  0.00000000E+00
  0.00000000E+00  0.00000000E+00  0.00000000E+00
