0.030  10  10  10   47  0.050   71    4   19   22    7   23           # Parameters to Generate KPOINTS (Do NOT Edit This Line)
   118
Reciprocal lattice
    0.00000000000000    0.00000000000000    0.00000000000000     1
    0.10000000000000    0.00000000000000    0.00000000000000     8
    0.20000000000000    0.00000000000000    0.00000000000000     8
    0.30000000000000    0.00000000000000    0.00000000000000     8
    0.40000000000000    0.00000000000000    0.00000000000000     8
    0.50000000000000    0.00000000000000    0.00000000000000     4
    0.10000000000000    0.10000000000000    0.00000000000000     6
    0.20000000000000    0.10000000000000    0.00000000000000    24
    0.30000000000000    0.10000000000000    0.00000000000000    24
    0.40000000000000    0.10000000000000    0.00000000000000    24
    0.50000000000000    0.10000000000000    0.00000000000000    24
   -0.40000000000000    0.10000000000000    0.00000000000000    24
   -0.30000000000000    0.10000000000000    0.00000000000000    24
   -0.20000000000000    0.10000000000000    0.00000000000000    24
   -0.10000000000000    0.10000000000000    0.00000000000000    12
    0.20000000000000    0.20000000000000    0.00000000000000     6
    0.30000000000000    0.20000000000000    0.00000000000000    24
    0.40000000000000    0.20000000000000    0.00000000000000    24
    0.50000000000000    0.20000000000000    0.00000000000000    24
   -0.40000000000000    0.20000000000000    0.00000000000000    24
   -0.30000000000000    0.20000000000000    0.00000000000000    24
   -0.20000000000000    0.20000000000000    0.00000000000000    12
    0.30000000000000    0.30000000000000    0.00000000000000     6
    0.40000000000000    0.30000000000000    0.00000000000000    24
    0.50000000000000    0.30000000000000    0.00000000000000    24
   -0.40000000000000    0.30000000000000    0.00000000000000    24
   -0.30000000000000    0.30000000000000    0.00000000000000    12
    0.40000000000000    0.40000000000000    0.00000000000000     6
    0.50000000000000    0.40000000000000    0.00000000000000    24
   -0.40000000000000    0.40000000000000    0.00000000000000    12
    0.50000000000000    0.50000000000000    0.00000000000000     3
    0.30000000000000    0.20000000000000    0.10000000000000    24
    0.40000000000000    0.20000000000000    0.10000000000000    48
    0.50000000000000    0.20000000000000    0.10000000000000    48
   -0.40000000000000    0.20000000000000    0.10000000000000    24
    0.40000000000000    0.30000000000000    0.10000000000000    24
    0.50000000000000    0.30000000000000    0.10000000000000    48
   -0.40000000000000    0.30000000000000    0.10000000000000    48
   -0.30000000000000    0.30000000000000    0.10000000000000    48
   -0.20000000000000    0.30000000000000    0.10000000000000    24
    0.50000000000000    0.40000000000000    0.10000000000000    24
   -0.40000000000000    0.40000000000000    0.10000000000000    48
   -0.30000000000000    0.40000000000000    0.10000000000000    24
   -0.40000000000000    0.50000000000000    0.10000000000000    12
   -0.40000000000000    0.40000000000000    0.20000000000000    24
   -0.30000000000000    0.40000000000000    0.20000000000000    24
   -0.30000000000000    0.50000000000000    0.20000000000000    12
    0.50000000000000    0.50000000000000    0.50000000000000     0
    0.47222222222222    0.47222222222222    0.47222222222222     0
    0.44444444444444    0.44444444444444    0.44444444444444     0
    0.41666666666667    0.41666666666667    0.41666666666667     0
    0.38888888888889    0.38888888888889    0.38888888888889     0
    0.36111111111111    0.36111111111111    0.36111111111111     0
    0.33333333333333    0.33333333333333    0.33333333333333     0
    0.30555555555556    0.30555555555556    0.30555555555556     0
    0.27777777777778    0.27777777777778    0.27777777777778     0
    0.25000000000000    0.25000000000000    0.25000000000000     0
    0.22222222222222    0.22222222222222    0.22222222222222     0
    0.19444444444444    0.19444444444444    0.19444444444444     0
    0.16666666666667    0.16666666666667    0.16666666666667     0
    0.13888888888889    0.13888888888889    0.13888888888889     0
    0.11111111111111    0.11111111111111    0.11111111111111     0
    0.08333333333333    0.08333333333333    0.08333333333333     0
    0.05555555555556    0.05555555555556    0.05555555555556     0
    0.02777777777778    0.02777777777778    0.02777777777778     0
    0.00000000000000    0.00000000000000    0.00000000000000     0
    0.00000000000000    0.00000000000000    0.00000000000000     0
    0.02380952380952    0.00000000000000    0.02380952380952     0
    0.04761904761905    0.00000000000000    0.04761904761905     0
    0.07142857142857    0.00000000000000    0.07142857142857     0
    0.09523809523810    0.00000000000000    0.09523809523810     0
    0.11904761904762    0.00000000000000    0.11904761904762     0
    0.14285714285714    0.00000000000000    0.14285714285714     0
    0.16666666666667    0.00000000000000    0.16666666666667     0
    0.19047619047619    0.00000000000000    0.19047619047619     0
    0.21428571428571    0.00000000000000    0.21428571428571     0
    0.23809523809524    0.00000000000000    0.23809523809524     0
    0.26190476190476    0.00000000000000    0.26190476190476     0
    0.28571428571429    0.00000000000000    0.28571428571429     0
    0.30952380952381    0.00000000000000    0.30952380952381     0
    0.33333333333333    0.00000000000000    0.33333333333333     0
    0.35714285714286    0.00000000000000    0.35714285714286     0
    0.38095238095238    0.00000000000000    0.38095238095238     0
    0.40476190476190    0.00000000000000    0.40476190476190     0
    0.42857142857143    0.00000000000000    0.42857142857143     0
    0.45238095238095    0.00000000000000    0.45238095238095     0
    0.47619047619048    0.00000000000000    0.47619047619048     0
    0.50000000000000    0.00000000000000    0.50000000000000     0
    0.50000000000000    0.00000000000000    0.50000000000000     0
    0.52083333333333    0.04166666666667    0.52083333333333     0
    0.54166666666667    0.08333333333333    0.54166666666667     0
    0.56250000000000    0.12500000000000    0.56250000000000     0
    0.58333333333333    0.16666666666667    0.58333333333333     0
    0.60416666666667    0.20833333333333    0.60416666666667     0
    0.62500000000000    0.25000000000000    0.62500000000000     0
    0.37500000000000    0.37500000000000    0.75000000000000     0
    0.35795454545455    0.35795454545455    0.71590909090909     0
    0.34090909090909    0.34090909090909    0.68181818181818     0
    0.32386363636364    0.32386363636364    0.64772727272727     0
    0.30681818181818    0.30681818181818    0.61363636363636     0
    0.28977272727273    0.28977272727273    0.57954545454545     0
    0.27272727272727    0.27272727272727    0.54545454545455     0
    0.25568181818182    0.25568181818182    0.51136363636364     0
    0.23863636363636    0.23863636363636    0.47727272727273     0
    0.22159090909091    0.22159090909091    0.44318181818182     0
    0.20454545454545    0.20454545454545    0.40909090909091     0
    0.18750000000000    0.18750000000000    0.37500000000000     0
    0.17045454545455    0.17045454545455    0.34090909090909     0
    0.15340909090909    0.15340909090909    0.30681818181818     0
    0.13636363636364    0.13636363636364    0.27272727272727     0
    0.11931818181818    0.11931818181818    0.23863636363636     0
    0.10227272727273    0.10227272727273    0.20454545454545     0
    0.08522727272727    0.08522727272727    0.17045454545455     0
    0.06818181818182    0.06818181818182    0.13636363636364     0
    0.05113636363636    0.05113636363636    0.10227272727273     0
    0.03409090909091    0.03409090909091    0.06818181818182     0
    0.01704545454545    0.01704545454545    0.03409090909091     0
    0.00000000000000    0.00000000000000    0.00000000000000     0
