Ge(100) 8-layer slab clean              
   1.0000000000000000     
     8.0008999999999997    0.0000000000000000    0.0000000000000000
     0.0000000000000000    8.0008999999999997    0.0000000000000000
     0.0000000000000000    0.0000000000000000   24.9006000000000007
   Ge   H 
    32     8
Direct
  0.9999934725391412  0.9994262276642578  0.2912053742271154
  0.4999902572621417  0.4978807726420804  0.2907310834324821
  0.9999933612402534  0.0039813118924447  0.5306998438149718
  0.4999940034357518  0.5008691949344360  0.5305266458598424
  0.4999941895770820  0.9994488764550562  0.2912001258928896
  0.9999901435022062  0.4978769735262701  0.2907167428363291
  0.4999938254791971  0.0031754849294213  0.5306636740194014
  0.9999939554991479  0.4998816822894543  0.5305482992287699
  0.7499827016668824  0.2461144965840185  0.1726885321504633
  0.2500105995498308  0.7476435705961944  0.1732714930541223
  0.7500260572158042  0.2487841973506489  0.4103278733919192
  0.2500166685902833  0.7487540771316565  0.4091155633761419
  0.2499998624657257  0.2461273140580681  0.1726879436950178
  0.7499815994261808  0.7476298852792244  0.1732703457060604
  0.2499582671374328  0.2487779810871911  0.4103277657661696
  0.7499657524761895  0.7487599310910877  0.4091153923608017
  0.2499852799722367  0.9977671112578932  0.2317774287691071
  0.7499661373676317  0.4963802379393704  0.2312200862593234
  0.2499409951606109  0.9969238308766751  0.4682613883696019
  0.7500174072508601  0.5003562763485075  0.4682167848820880
 -0.0000102562769275  0.2536878884968213  0.1153656709659263
  0.4999952656720864  0.7533163962339291  0.1159147725275939
  0.9999920089555380  0.2491909682126527  0.3500842544933282
  0.4999912083031531  0.7483139417297621  0.3491857668823384
  0.4999919263560521  0.2518596394584447  0.1153352773718289
  0.9999980517689959  0.7550332915821911  0.1159461379437413
  0.4999925471779331  0.2491783470690531  0.3500986849520334
  0.9999915007166812  0.7482903283951058  0.3491920892275862
  0.7500028831814549  0.9977542821227077  0.2317770888992552
  0.2500150313387510  0.4963903297434267  0.2312201474835207
  0.7500462863133363  0.9969302486501667  0.4682611666898609
  0.2499707547875503  0.5003493925456866  0.4682167664659179
  0.9999901355801865  0.4132930354599611  0.0811331352668236
  0.9999858338570533  0.1119368476081802  0.0736030129691847
  0.9999939891490625  0.9126030143636397  0.0807551981623856
  0.0000058580594882  0.6109762190087327  0.0750251445349155
  0.4999727408051530  0.1080208841278526  0.0743414436502220
  0.5000115138803205  0.4097161820843894  0.0802498701799607
  0.5000075746984566  0.9088572152847928  0.0797741214768697
  0.4999806088610189  0.6069521138885280  0.0758778627642084

  0.00000000E+00  0.00000000E+00  0.00000000E+00
  0.00000000E+00  0.00000000E+00  0.00000000E+00
  0.00000000E+00  0.00000000E+00  0.00000000E+00
  0.00000000E+00  0.00000000E+00  0.00000000E+00
  0.00000000E+00  0.00000000E+00  0.00000000E+00
  0.00000000E+00  0.00000000E+00  0.00000000E+00
  0.00000000E+00  0.00000000E+00  0.00000000E+00
  0.00000000E+00  0.00000000E+00  0.00000000E+00
  0.00000000E+00  0.00000000E+00  0.00000000E+00
  0.00000000E+00  0.00000000E+00  0.00000000E+00
  0.00000000E+00  0.00000000E+00  0.00000000E+00
  0.00000000E+00  0.00000000E+00  0.00000000E+00
  0.00000000E+00  0.00000000E+00  0.00000000E+00
  0.00000000E+00  0.00000000E+00  0.00000000E+00
  0.00000000E+00  0.00000000E+00  0.00000000E+00
  0.00000000E+00  0.00000000E+00  0.00000000E+00
  0.00000000E+00  0.00000000E+00  0.00000000E+00
  0.00000000E+00  0.00000000E+00  0.00000000E+00
  0.00000000E+00  0.00000000E+00  0.00000000E+00
  0.00000000E+00  0.00000000E+00  0.00000000E+00
  0.00000000E+00  0.00000000E+00  0.00000000E+00
  0.00000000E+00  0.00000000E+00  0.00000000E+00
  0.00000000E+00  0.00000000E+00  0.00000000E+00
  0.00000000E+00  0.00000000E+00  0.00000000E+00
  0.00000000E+00  0.00000000E+00  0.00000000E+00
  0.00000000E+00  0.00000000E+00  0.00000000E+00
  0.00000000E+00  0.00000000E+00  0.00000000E+00
  0.00000000E+00  0.00000000E+00  0.00000000E+00
  0.00000000E+00  0.00000000E+00  0.00000000E+00
  0.00000000E+00  0.00000000E+00  0.00000000E+00
  0.00000000E+00  0.00000000E+00  0.00000000E+00
  0.00000000E+00  0.00000000E+00  0.00000000E+00
  0.00000000E+00  0.00000000E+00  0.00000000E+00
  0.00000000E+00  0.00000000E+00  0.00000000E+00
  0.00000000E+00  0.00000000E+00  0.00000000E+00
  0.00000000E+00  0.00000000E+00  0.00000000E+00
  0.00000000E+00  0.00000000E+00  0.00000000E+00
  0.00000000E+00  0.00000000E+00  0.00000000E+00
  0.00000000E+00  0.00000000E+00  0.00000000E+00
  0.00000000E+00  0.00000000E+00  0.00000000E+00
