Converted by xsd2pos.py
1.0
     5.62450000     0.00000000     0.00000000
     0.00000000     5.62450000     0.00000000
     0.00000000     0.00000000    27.65522514
  Ge  H
  18  4
Selective
Direct
     0.00000000     0.50000000     0.37288613   T T T
     0.00000000     0.50000000     0.57626542   F F F
     0.50000000     0.00000000     0.37288613   T T T
     0.50000000     0.00000000     0.57626542   F F F
     0.00000000     0.00000000     0.27119649   T T T
     0.00000000     0.00000000     0.47457578   F F F
     0.00000000     0.00000000     0.67795507   F F F
     0.50000000     0.50000000     0.27119649   T T T
     0.50000000     0.50000000     0.47457578   F F F
     0.50000000     0.50000000     0.67795507   F F F
     0.25000000     0.25000000     0.32204131   T T T
     0.25000000     0.25000000     0.52542060   F F F
     0.25000000     0.75000000     0.42373096   T T T
     0.25000000     0.75000000     0.62711024   F F F
     0.75000000     0.25000000     0.42373096   T T T
     0.75000000     0.25000000     0.62711024   F F F
     0.75000000     0.75000000     0.32204131   T T T
     0.75000000     0.75000000     0.52542060   F F F
    -0.125000000   -0.125000000    0.70337750   F F F
     0.125000000    0.125000000    0.70337750   F F F
     0.375000000    0.375000000    0.70337750   F F F
     0.625000000    0.625000000    0.70337750   F F F