Ge8                                     
   1.0000000000000000     
     5.7315117956557176   -0.0000000000000000    0.0000000000000003
    -0.0000000000000003    5.7315117956557176    0.0000000000000003
     0.0000000000000000    0.0000000000000000    5.7315117956557176
   Ge
     8
Direct
 -0.0000000000000000  0.0000000000000000  0.5000000000000000
  0.2500000000000000  0.2500000000000000  0.7500000000000000
 -0.0000000000000000  0.5000000000000000 -0.0000000000000000
  0.2500000000000000  0.7500000000000000  0.2500000000000000
  0.5000000000000000 -0.0000000000000000 -0.0000000000000000
  0.7500000000000000  0.2500000000000000  0.2500000000000000
  0.5000000000000000  0.5000000000000000  0.5000000000000000
  0.7500000000000000  0.7500000000000000  0.7500000000000000

  0.00000000E+00  0.00000000E+00  0.00000000E+00
  0.00000000E+00  0.00000000E+00  0.00000000E+00
  0.00000000E+00  0.00000000E+00  0.00000000E+00
  0.00000000E+00  0.00000000E+00  0.00000000E+00
  0.00000000E+00  0.00000000E+00  0.00000000E+00
  0.00000000E+00  0.00000000E+00  0.00000000E+00
  0.00000000E+00  0.00000000E+00  0.00000000E+00
  0.00000000E+00  0.00000000E+00  0.00000000E+00
