K-Spacing Value to Generate K-Mesh: 0.010
0
Gamma
  18  18  18
0.0  0.0  0.0
