Ge8
1.0
   5.6748542148543777    0.0000000000000000    0.0000000000000003
  -0.0000000000000003    5.6748542148543777    0.0000000000000003
   0.0000000000000000    0.0000000000000000    5.6748542148543777
Ge
8
direct
   0.0000000000000000    0.0000000000000000    0.5000000000000000 
   0.2500000000000000    0.2500000000000000    0.7500000000000000 
   0.0000000000000000    0.5000000000000000    0.0000000000000000 
   0.2500000000000000    0.7500000000000000    0.2500000000000000 
   0.5000000000000000    0.0000000000000000    0.0000000000000000 
   0.7500000000000000    0.2500000000000000    0.2500000000000000 
   0.5000000000000000    0.5000000000000000    0.5000000000000000 
   0.7500000000000000    0.7500000000000000    0.7500000000000000 
