0.040   8   8   8   29  0.060   83    6   19    6   20   16   13    9           # Parameters to Generate KPOINTS (Do NOT Edit This Line)
   112
Reciprocal lattice
    0.00000000000000    0.00000000000000    0.00000000000000     1
    0.12500000000000    0.00000000000000    0.00000000000000     8
    0.25000000000000    0.00000000000000    0.00000000000000     8
    0.37500000000000    0.00000000000000    0.00000000000000     8
    0.50000000000000    0.00000000000000    0.00000000000000     4
    0.12500000000000    0.12500000000000    0.00000000000000     6
    0.25000000000000    0.12500000000000    0.00000000000000    24
    0.37500000000000    0.12500000000000    0.00000000000000    24
    0.50000000000000    0.12500000000000    0.00000000000000    24
   -0.37500000000000    0.12500000000000    0.00000000000000    24
   -0.25000000000000    0.12500000000000    0.00000000000000    24
   -0.12500000000000    0.12500000000000    0.00000000000000    12
    0.25000000000000    0.25000000000000    0.00000000000000     6
    0.37500000000000    0.25000000000000    0.00000000000000    24
    0.50000000000000    0.25000000000000    0.00000000000000    24
   -0.37500000000000    0.25000000000000    0.00000000000000    24
   -0.25000000000000    0.25000000000000    0.00000000000000    12
    0.37500000000000    0.37500000000000    0.00000000000000     6
    0.50000000000000    0.37500000000000    0.00000000000000    24
   -0.37500000000000    0.37500000000000    0.00000000000000    12
    0.50000000000000    0.50000000000000    0.00000000000000     3
    0.37500000000000    0.25000000000000    0.12500000000000    24
    0.50000000000000    0.25000000000000    0.12500000000000    48
   -0.37500000000000    0.25000000000000    0.12500000000000    24
    0.50000000000000    0.37500000000000    0.12500000000000    24
   -0.37500000000000    0.37500000000000    0.12500000000000    48
   -0.25000000000000    0.37500000000000    0.12500000000000    24
   -0.37500000000000    0.50000000000000    0.12500000000000    12
   -0.25000000000000    0.50000000000000    0.25000000000000     6
    0.00000000000000    0.00000000000000    0.00000000000000     0
    0.02777777777778    0.00000000000000    0.02777777777778     0
    0.05555555555556    0.00000000000000    0.05555555555556     0
    0.08333333333333    0.00000000000000    0.08333333333333     0
    0.11111111111111    0.00000000000000    0.11111111111111     0
    0.13888888888889    0.00000000000000    0.13888888888889     0
    0.16666666666667    0.00000000000000    0.16666666666667     0
    0.19444444444444    0.00000000000000    0.19444444444444     0
    0.22222222222222    0.00000000000000    0.22222222222222     0
    0.25000000000000    0.00000000000000    0.25000000000000     0
    0.27777777777778    0.00000000000000    0.27777777777778     0
    0.30555555555556    0.00000000000000    0.30555555555556     0
    0.33333333333333    0.00000000000000    0.33333333333333     0
    0.36111111111111    0.00000000000000    0.36111111111111     0
    0.38888888888889    0.00000000000000    0.38888888888889     0
    0.41666666666667    0.00000000000000    0.41666666666667     0
    0.44444444444444    0.00000000000000    0.44444444444444     0
    0.47222222222222    0.00000000000000    0.47222222222222     0
    0.50000000000000    0.00000000000000    0.50000000000000     0
    0.50000000000000    0.00000000000000    0.50000000000000     0
    0.52500000000000    0.05000000000000    0.52500000000000     0
    0.55000000000000    0.10000000000000    0.55000000000000     0
    0.57500000000000    0.15000000000000    0.57500000000000     0
    0.60000000000000    0.20000000000000    0.60000000000000     0
    0.62500000000000    0.25000000000000    0.62500000000000     0
    0.37500000000000    0.37500000000000    0.75000000000000     0
    0.35526315789474    0.35526315789474    0.71052631578947     0
    0.33552631578947    0.33552631578947    0.67105263157895     0
    0.31578947368421    0.31578947368421    0.63157894736842     0
    0.29605263157895    0.29605263157895    0.59210526315789     0
    0.27631578947368    0.27631578947368    0.55263157894737     0
    0.25657894736842    0.25657894736842    0.51315789473684     0
    0.23684210526316    0.23684210526316    0.47368421052632     0
    0.21710526315789    0.21710526315789    0.43421052631579     0
    0.19736842105263    0.19736842105263    0.39473684210526     0
    0.17763157894737    0.17763157894737    0.35526315789474     0
    0.15789473684211    0.15789473684211    0.31578947368421     0
    0.13815789473684    0.13815789473684    0.27631578947368     0
    0.11842105263158    0.11842105263158    0.23684210526316     0
    0.09868421052632    0.09868421052632    0.19736842105263     0
    0.07894736842105    0.07894736842105    0.15789473684211     0
    0.05921052631579    0.05921052631579    0.11842105263158     0
    0.03947368421053    0.03947368421053    0.07894736842105     0
    0.01973684210526    0.01973684210526    0.03947368421053     0
    0.00000000000000    0.00000000000000    0.00000000000000     0
    0.00000000000000    0.00000000000000    0.00000000000000     0
    0.03333333333333    0.03333333333333    0.03333333333333     0
    0.06666666666667    0.06666666666667    0.06666666666667     0
    0.10000000000000    0.10000000000000    0.10000000000000     0
    0.13333333333333    0.13333333333333    0.13333333333333     0
    0.16666666666667    0.16666666666667    0.16666666666667     0
    0.20000000000000    0.20000000000000    0.20000000000000     0
    0.23333333333333    0.23333333333333    0.23333333333333     0
    0.26666666666667    0.26666666666667    0.26666666666667     0
    0.30000000000000    0.30000000000000    0.30000000000000     0
    0.33333333333333    0.33333333333333    0.33333333333333     0
    0.36666666666667    0.36666666666667    0.36666666666667     0
    0.40000000000000    0.40000000000000    0.40000000000000     0
    0.43333333333333    0.43333333333333    0.43333333333333     0
    0.46666666666667    0.46666666666667    0.46666666666667     0
    0.50000000000000    0.50000000000000    0.50000000000000     0
    0.50000000000000    0.50000000000000    0.50000000000000     0
    0.50000000000000    0.47916666666667    0.52083333333333     0
    0.50000000000000    0.45833333333333    0.54166666666667     0
    0.50000000000000    0.43750000000000    0.56250000000000     0
    0.50000000000000    0.41666666666667    0.58333333333333     0
    0.50000000000000    0.39583333333333    0.60416666666667     0
    0.50000000000000    0.37500000000000    0.62500000000000     0
    0.50000000000000    0.35416666666667    0.64583333333333     0
    0.50000000000000    0.33333333333333    0.66666666666667     0
    0.50000000000000    0.31250000000000    0.68750000000000     0
    0.50000000000000    0.29166666666667    0.70833333333333     0
    0.50000000000000    0.27083333333333    0.72916666666667     0
    0.50000000000000    0.25000000000000    0.75000000000000     0
    0.50000000000000    0.25000000000000    0.75000000000000     0
    0.50000000000000    0.21875000000000    0.71875000000000     0
    0.50000000000000    0.18750000000000    0.68750000000000     0
    0.50000000000000    0.15625000000000    0.65625000000000     0
    0.50000000000000    0.12500000000000    0.62500000000000     0
    0.50000000000000    0.09375000000000    0.59375000000000     0
    0.50000000000000    0.06250000000000    0.56250000000000     0
    0.50000000000000    0.03125000000000    0.53125000000000     0
    0.50000000000000    0.00000000000000    0.50000000000000     0
