0.030  11  11  11   56  0.040  126    6   28   10   30   24   20   14           # Parameters to Generate KPOINTS (Do NOT Edit This Line)
   182
Reciprocal lattice
    0.00000000000000    0.00000000000000    0.00000000000000     1
    0.09090909090909    0.00000000000000    0.00000000000000     8
    0.18181818181818    0.00000000000000    0.00000000000000     8
    0.27272727272727    0.00000000000000    0.00000000000000     8
    0.36363636363636    0.00000000000000    0.00000000000000     8
    0.45454545454545    0.00000000000000    0.00000000000000     8
    0.09090909090909    0.09090909090909    0.00000000000000     6
    0.18181818181818    0.09090909090909    0.00000000000000    24
    0.27272727272727    0.09090909090909    0.00000000000000    24
    0.36363636363636    0.09090909090909    0.00000000000000    24
    0.45454545454545    0.09090909090909    0.00000000000000    24
   -0.45454545454545    0.09090909090909    0.00000000000000    24
   -0.36363636363636    0.09090909090909    0.00000000000000    24
   -0.27272727272727    0.09090909090909    0.00000000000000    24
   -0.18181818181818    0.09090909090909    0.00000000000000    24
   -0.09090909090909    0.09090909090909    0.00000000000000    12
    0.18181818181818    0.18181818181818    0.00000000000000     6
    0.27272727272727    0.18181818181818    0.00000000000000    24
    0.36363636363636    0.18181818181818    0.00000000000000    24
    0.45454545454545    0.18181818181818    0.00000000000000    24
   -0.45454545454545    0.18181818181818    0.00000000000000    24
   -0.36363636363636    0.18181818181818    0.00000000000000    24
   -0.27272727272727    0.18181818181818    0.00000000000000    24
   -0.18181818181818    0.18181818181818    0.00000000000000    12
    0.27272727272727    0.27272727272727    0.00000000000000     6
    0.36363636363636    0.27272727272727    0.00000000000000    24
    0.45454545454545    0.27272727272727    0.00000000000000    24
   -0.45454545454545    0.27272727272727    0.00000000000000    24
   -0.36363636363636    0.27272727272727    0.00000000000000    24
   -0.27272727272727    0.27272727272727    0.00000000000000    12
    0.36363636363636    0.36363636363636    0.00000000000000     6
    0.45454545454545    0.36363636363636    0.00000000000000    24
   -0.45454545454545    0.36363636363636    0.00000000000000    24
   -0.36363636363636    0.36363636363636    0.00000000000000    12
    0.45454545454545    0.45454545454545    0.00000000000000     6
   -0.45454545454545    0.45454545454545    0.00000000000000    12
    0.27272727272727    0.18181818181818    0.09090909090909    24
    0.36363636363636    0.18181818181818    0.09090909090909    48
    0.45454545454545    0.18181818181818    0.09090909090909    48
   -0.45454545454545    0.18181818181818    0.09090909090909    48
    0.36363636363636    0.27272727272727    0.09090909090909    24
    0.45454545454545    0.27272727272727    0.09090909090909    48
   -0.45454545454545    0.27272727272727    0.09090909090909    48
   -0.36363636363636    0.27272727272727    0.09090909090909    48
   -0.27272727272727    0.27272727272727    0.09090909090909    48
   -0.18181818181818    0.27272727272727    0.09090909090909    24
    0.45454545454545    0.36363636363636    0.09090909090909    24
   -0.45454545454545    0.36363636363636    0.09090909090909    48
   -0.36363636363636    0.36363636363636    0.09090909090909    48
   -0.27272727272727    0.36363636363636    0.09090909090909    24
   -0.45454545454545    0.45454545454545    0.09090909090909    24
   -0.36363636363636    0.45454545454545    0.09090909090909    24
   -0.45454545454545    0.36363636363636    0.18181818181818    24
   -0.36363636363636    0.36363636363636    0.18181818181818    48
   -0.36363636363636    0.45454545454545    0.18181818181818    24
   -0.27272727272727    0.45454545454545    0.18181818181818    24
    0.00000000000000    0.00000000000000    0.00000000000000     0
    0.01851851851852    0.00000000000000    0.01851851851852     0
    0.03703703703704    0.00000000000000    0.03703703703704     0
    0.05555555555556    0.00000000000000    0.05555555555556     0
    0.07407407407407    0.00000000000000    0.07407407407407     0
    0.09259259259259    0.00000000000000    0.09259259259259     0
    0.11111111111111    0.00000000000000    0.11111111111111     0
    0.12962962962963    0.00000000000000    0.12962962962963     0
    0.14814814814815    0.00000000000000    0.14814814814815     0
    0.16666666666667    0.00000000000000    0.16666666666667     0
    0.18518518518519    0.00000000000000    0.18518518518519     0
    0.20370370370370    0.00000000000000    0.20370370370370     0
    0.22222222222222    0.00000000000000    0.22222222222222     0
    0.24074074074074    0.00000000000000    0.24074074074074     0
    0.25925925925926    0.00000000000000    0.25925925925926     0
    0.27777777777778    0.00000000000000    0.27777777777778     0
    0.29629629629630    0.00000000000000    0.29629629629630     0
    0.31481481481481    0.00000000000000    0.31481481481481     0
    0.33333333333333    0.00000000000000    0.33333333333333     0
    0.35185185185185    0.00000000000000    0.35185185185185     0
    0.37037037037037    0.00000000000000    0.37037037037037     0
    0.38888888888889    0.00000000000000    0.38888888888889     0
    0.40740740740741    0.00000000000000    0.40740740740741     0
    0.42592592592593    0.00000000000000    0.42592592592593     0
    0.44444444444444    0.00000000000000    0.44444444444444     0
    0.46296296296296    0.00000000000000    0.46296296296296     0
    0.48148148148148    0.00000000000000    0.48148148148148     0
    0.50000000000000    0.00000000000000    0.50000000000000     0
    0.50000000000000    0.00000000000000    0.50000000000000     0
    0.51388888888889    0.02777777777778    0.51388888888889     0
    0.52777777777778    0.05555555555556    0.52777777777778     0
    0.54166666666667    0.08333333333333    0.54166666666667     0
    0.55555555555556    0.11111111111111    0.55555555555556     0
    0.56944444444444    0.13888888888889    0.56944444444444     0
    0.58333333333333    0.16666666666667    0.58333333333333     0
    0.59722222222222    0.19444444444444    0.59722222222222     0
    0.61111111111111    0.22222222222222    0.61111111111111     0
    0.62500000000000    0.25000000000000    0.62500000000000     0
    0.37500000000000    0.37500000000000    0.75000000000000     0
    0.36206896551724    0.36206896551724    0.72413793103448     0
    0.34913793103448    0.34913793103448    0.69827586206897     0
    0.33620689655172    0.33620689655172    0.67241379310345     0
    0.32327586206897    0.32327586206897    0.64655172413793     0
    0.31034482758621    0.31034482758621    0.62068965517241     0
    0.29741379310345    0.29741379310345    0.59482758620690     0
    0.28448275862069    0.28448275862069    0.56896551724138     0
    0.27155172413793    0.27155172413793    0.54310344827586     0
    0.25862068965517    0.25862068965517    0.51724137931034     0
    0.24568965517241    0.24568965517241    0.49137931034483     0
    0.23275862068966    0.23275862068966    0.46551724137931     0
    0.21982758620690    0.21982758620690    0.43965517241379     0
    0.20689655172414    0.20689655172414    0.41379310344828     0
    0.19396551724138    0.19396551724138    0.38793103448276     0
    0.18103448275862    0.18103448275862    0.36206896551724     0
    0.16810344827586    0.16810344827586    0.33620689655172     0
    0.15517241379310    0.15517241379310    0.31034482758621     0
    0.14224137931034    0.14224137931034    0.28448275862069     0
    0.12931034482759    0.12931034482759    0.25862068965517     0
    0.11637931034483    0.11637931034483    0.23275862068966     0
    0.10344827586207    0.10344827586207    0.20689655172414     0
    0.09051724137931    0.09051724137931    0.18103448275862     0
    0.07758620689655    0.07758620689655    0.15517241379310     0
    0.06465517241379    0.06465517241379    0.12931034482759     0
    0.05172413793103    0.05172413793103    0.10344827586207     0
    0.03879310344828    0.03879310344828    0.07758620689655     0
    0.02586206896552    0.02586206896552    0.05172413793103     0
    0.01293103448276    0.01293103448276    0.02586206896552     0
    0.00000000000000    0.00000000000000    0.00000000000000     0
    0.00000000000000    0.00000000000000    0.00000000000000     0
    0.02173913043478    0.02173913043478    0.02173913043478     0
    0.04347826086957    0.04347826086957    0.04347826086957     0
    0.06521739130435    0.06521739130435    0.06521739130435     0
    0.08695652173913    0.08695652173913    0.08695652173913     0
    0.10869565217391    0.10869565217391    0.10869565217391     0
    0.13043478260870    0.13043478260870    0.13043478260870     0
    0.15217391304348    0.15217391304348    0.15217391304348     0
    0.17391304347826    0.17391304347826    0.17391304347826     0
    0.19565217391304    0.19565217391304    0.19565217391304     0
    0.21739130434783    0.21739130434783    0.21739130434783     0
    0.23913043478261    0.23913043478261    0.23913043478261     0
    0.26086956521739    0.26086956521739    0.26086956521739     0
    0.28260869565217    0.28260869565217    0.28260869565217     0
    0.30434782608696    0.30434782608696    0.30434782608696     0
    0.32608695652174    0.32608695652174    0.32608695652174     0
    0.34782608695652    0.34782608695652    0.34782608695652     0
    0.36956521739130    0.36956521739130    0.36956521739130     0
    0.39130434782609    0.39130434782609    0.39130434782609     0
    0.41304347826087    0.41304347826087    0.41304347826087     0
    0.43478260869565    0.43478260869565    0.43478260869565     0
    0.45652173913043    0.45652173913043    0.45652173913043     0
    0.47826086956522    0.47826086956522    0.47826086956522     0
    0.50000000000000    0.50000000000000    0.50000000000000     0
    0.50000000000000    0.50000000000000    0.50000000000000     0
    0.50000000000000    0.48684210526316    0.51315789473684     0
    0.50000000000000    0.47368421052632    0.52631578947368     0
    0.50000000000000    0.46052631578947    0.53947368421053     0
    0.50000000000000    0.44736842105263    0.55263157894737     0
    0.50000000000000    0.43421052631579    0.56578947368421     0
    0.50000000000000    0.42105263157895    0.57894736842105     0
    0.50000000000000    0.40789473684211    0.59210526315789     0
    0.50000000000000    0.39473684210526    0.60526315789474     0
    0.50000000000000    0.38157894736842    0.61842105263158     0
    0.50000000000000    0.36842105263158    0.63157894736842     0
    0.50000000000000    0.35526315789474    0.64473684210526     0
    0.50000000000000    0.34210526315789    0.65789473684211     0
    0.50000000000000    0.32894736842105    0.67105263157895     0
    0.50000000000000    0.31578947368421    0.68421052631579     0
    0.50000000000000    0.30263157894737    0.69736842105263     0
    0.50000000000000    0.28947368421053    0.71052631578947     0
    0.50000000000000    0.27631578947368    0.72368421052632     0
    0.50000000000000    0.26315789473684    0.73684210526316     0
    0.50000000000000    0.25000000000000    0.75000000000000     0
    0.50000000000000    0.25000000000000    0.75000000000000     0
    0.50000000000000    0.23076923076923    0.73076923076923     0
    0.50000000000000    0.21153846153846    0.71153846153846     0
    0.50000000000000    0.19230769230769    0.69230769230769     0
    0.50000000000000    0.17307692307692    0.67307692307692     0
    0.50000000000000    0.15384615384615    0.65384615384615     0
    0.50000000000000    0.13461538461538    0.63461538461538     0
    0.50000000000000    0.11538461538462    0.61538461538462     0
    0.50000000000000    0.09615384615385    0.59615384615385     0
    0.50000000000000    0.07692307692308    0.57692307692308     0
    0.50000000000000    0.05769230769231    0.55769230769231     0
    0.50000000000000    0.03846153846154    0.53846153846154     0
    0.50000000000000    0.01923076923077    0.51923076923077     0
    0.50000000000000    0.00000000000000    0.50000000000000     0
