Global Parameters(ENERGY convergence test)
ISPIN  =  1            (Non-Spin polarised DFT)
LREAL  = .FALSE.       (Projection operators: automatic)
ENCUT  =  TO_BE_TESTED   (Cut-off energy for plane wave basis set, in eV)
PREC   =  Accurate     (Precision level: Normal or Accurate, set Accurate when perform structure lattice relaxation calculation)
LWAVE  = .FALSE.        (Write WAVECAR or not)
LCHARG = .FALSE.        (Write CHGCAR or not)

 
Static Calculation(Electronic Relaxation)
ISMEAR =  0            (gaussian smearing method)
SIGMA  =  0.05         (please check the width of the smearing)
NELM   =  100           (Max electronic SCF steps)
EDIFF  =  1E-08        (SCF energy convergence, in eV)
 
