K-Spacing Value to Generate K-Mesh: 0.030
0
Gamma
TO_BE_TESTED
0.0  0.0  0.0
