Primitive Cell                          
   1.0000000000000000     
     0.0000000000000000    2.8287700000000000    2.8287700000000000
     2.8287700000000000    0.0000000000000000    2.8287700000000000
     2.8287700000000000    2.8287700000000000    0.0000000000000000
   Ge
     2
Direct
  0.5000000000000000  0.5000000000000000  0.5000000000000000
  0.7500000000000000  0.7500000000000000  0.7500000000000000

  0.00000000E+00  0.00000000E+00  0.00000000E+00
  0.00000000E+00  0.00000000E+00  0.00000000E+00
