cubic diamond Ge
5.6748542148543777 
 0.0    0.5     0.5
 0.5    0.0     0.5
 0.5    0.5     0.0
Ge
2
Direct
 -0.125 -0.125 -0.125
  0.125  0.125  0.125