Ge surface 6 layers 20A vacuum
1.0
     4.07557340     0.00000000     0.00000000
     0.00000000     4.07557340     0.00000000
     0.00000000     0.00000000    27.20466397
  Ge
  6
Selective
Direct
    -0.00000000     0.00000000     0.16324160   F F F
    -0.00000000     0.00000000     0.37510715   T T T
     0.50000000     0.50000000     0.26917437   T T T
     0.50000000     0.00000000     0.11027521   F F F
     0.50000000     0.00000000     0.32214076   T T T
    -0.00000000     0.50000000     0.21620799   F F F
