Ge Ga Ge
 1.0000000000000000
    17.1945353869671536   -0.0000000000000000    0.0000000000000009
    -0.0000000000000009   17.1945353869671536    0.0000000000000009
     0.0000000000000000    0.0000000000000000   17.1945353869671536
 Ge  Ga  Ge 
  47   1 168
Direct
  0.0000000000000000  0.0000000000000000  0.1666666666666667
  0.0833333333333333  0.0833333333333333  0.2500000000000000
  0.0000000000000000  0.1666666666666667  0.0000000000000000
  0.0833333333333333  0.2500000000000000  0.0833333333333333
  0.1666666666666667  0.0000000000000000  0.0000000000000000
  0.2500000000000000  0.0833333333333333  0.0833333333333333
  0.1666666666666667  0.1666666666666667  0.1666666666666667
  0.2500000000000000  0.2500000000000000  0.2499999999999999
  0.0000000000000000  0.0000000000000000  0.5000000000000000
  0.0833333333333333  0.0833333333333333  0.5833333333333334
  0.0000000000000000  0.1666666666666667  0.3333333333333333
  0.0833333333333333  0.2500000000000000  0.4166666666666666
  0.1666666666666667  0.0000000000000000  0.3333333333333333
  0.2500000000000000  0.0833333333333333  0.4166666666666666
  0.1666666666666667  0.1666666666666667  0.5000000000000000
  0.2500000000000000  0.2500000000000000  0.5833333333333334
  0.0000000000000000  0.0000000000000000  0.8333333333333333
  0.0833333333333333  0.0833333333333333  0.9166666666666666
  0.0000000000000000  0.1666666666666667  0.6666666666666666
  0.0833333333333333  0.2500000000000000  0.7500000000000000
  0.1666666666666667  0.0000000000000000  0.6666666666666666
  0.2500000000000000  0.0833333333333333  0.7500000000000000
  0.1666666666666667  0.1666666666666667  0.8333333333333333
  0.2500000000000000  0.2500000000000000  0.9166666666666666
  0.0000000000000000  0.3333333333333333  0.1666666666666667
  0.0833333333333333  0.4166666666666666  0.2499999999999999
  0.0000000000000000  0.5000000000000000  0.0000000000000000
  0.0833333333333333  0.5833333333333334  0.0833333333333333
  0.1666666666666667  0.3333333333333333  0.0000000000000000
  0.2500000000000000  0.4166666666666666  0.0833333333333333
  0.1666666666666667  0.5000000000000000  0.1666666666666667
  0.2500000000000001  0.5833333333333334  0.2499999999999999
  0.0000000000000000  0.3333333333333333  0.5000000000000000
  0.0833333333333333  0.4166666666666666  0.5833333333333334
  0.0000000000000000  0.5000000000000000  0.3333333333333333
  0.0833333333333333  0.5833333333333334  0.4166666666666666
  0.1666666666666667  0.3333333333333333  0.3333333333333333
  0.2500000000000000  0.4166666666666666  0.4166666666666666
  0.1666666666666667  0.5000000000000000  0.5000000000000000
  0.2500000000000001  0.5833333333333334  0.5833333333333334
  0.0000000000000000  0.3333333333333333  0.8333333333333333
  0.0833333333333333  0.4166666666666666  0.9166666666666666
  0.0000000000000000  0.5000000000000000  0.6666666666666666
  0.0833333333333333  0.5833333333333334  0.7500000000000000
  0.1666666666666667  0.3333333333333333  0.6666666666666666
  0.2500000000000000  0.4166666666666666  0.7500000000000000
  0.1666666666666667  0.5000000000000000  0.8333333333333333
  0.2500000000000001  0.5833333333333334  0.9166666666666666
  0.0000000000000000  0.6666666666666666  0.1666666666666667
  0.0833333333333333  0.7500000000000000  0.2500000000000000
  0.0000000000000000  0.8333333333333333  0.0000000000000000
  0.0833333333333333  0.9166666666666666  0.0833333333333333
  0.1666666666666667  0.6666666666666666  0.0000000000000000
  0.2500000000000000  0.7500000000000000  0.0833333333333333
  0.1666666666666667  0.8333333333333333  0.1666666666666667
  0.2500000000000000  0.9166666666666666  0.2500000000000000
  0.0000000000000000  0.6666666666666666  0.5000000000000000
  0.0833333333333333  0.7500000000000000  0.5833333333333334
  0.0000000000000000  0.8333333333333333  0.3333333333333333
  0.0833333333333333  0.9166666666666666  0.4166666666666667
  0.1666666666666667  0.6666666666666666  0.3333333333333333
  0.2500000000000000  0.7500000000000000  0.4166666666666667
  0.1666666666666667  0.8333333333333333  0.4999999999999999
  0.2500000000000000  0.9166666666666666  0.5833333333333333
  0.0000000000000000  0.6666666666666666  0.8333333333333333
  0.0833333333333333  0.7500000000000000  0.9166666666666666
  0.0000000000000000  0.8333333333333333  0.6666666666666666
  0.0833333333333333  0.9166666666666666  0.7499999999999999
  0.1666666666666667  0.6666666666666666  0.6666666666666666
  0.2500000000000000  0.7500000000000000  0.7499999999999999
  0.1666666666666667  0.8333333333333333  0.8333333333333331
  0.2500000000000000  0.9166666666666666  0.9166666666666665
  0.3333333333333333  0.0000000000000000  0.1666666666666667
  0.4166666666666666  0.0833333333333333  0.2499999999999999
  0.3333333333333333  0.1666666666666667  0.0000000000000000
  0.4166666666666666  0.2500000000000000  0.0833333333333333
  0.5000000000000000  0.0000000000000000  0.0000000000000000
  0.5833333333333334  0.0833333333333333  0.0833333333333333
  0.5000000000000000  0.1666666666666667  0.1666666666666667
  0.5833333333333334  0.2500000000000000  0.2499999999999999
  0.3333333333333333  0.0000000000000000  0.5000000000000000
  0.4166666666666666  0.0833333333333333  0.5833333333333334
  0.3333333333333333  0.1666666666666667  0.3333333333333333
  0.4166666666666666  0.2500000000000000  0.4166666666666666
  0.5000000000000000  0.0000000000000000  0.3333333333333333
  0.5833333333333334  0.0833333333333333  0.4166666666666666
  0.5000000000000000  0.1666666666666667  0.5000000000000000
  0.5833333333333334  0.2500000000000000  0.5833333333333334
  0.3333333333333333  0.0000000000000000  0.8333333333333333
  0.4166666666666666  0.0833333333333333  0.9166666666666666
  0.3333333333333333  0.1666666666666667  0.6666666666666666
  0.4166666666666666  0.2500000000000000  0.7500000000000000
  0.5000000000000000  0.0000000000000000  0.6666666666666666
  0.5833333333333334  0.0833333333333333  0.7500000000000000
  0.5000000000000000  0.1666666666666667  0.8333333333333333
  0.5833333333333334  0.2500000000000000  0.9166666666666666
  0.3333333333333333  0.3333333333333333  0.1666666666666667
  0.4166666666666666  0.4166666666666666  0.2500000000000000
  0.3333333333333334  0.5000000000000000  0.0000000000000000
  0.4166666666666667  0.5833333333333334  0.0833333333333333
  0.5000000000000000  0.3333333333333333  0.0000000000000000
  0.5833333333333334  0.4166666666666666  0.0833333333333333
  0.5000000000000000  0.5000000000000000  0.1666666666666667
  0.5833333333333334  0.5833333333333334  0.2500000000000000
  0.3333333333333333  0.3333333333333333  0.5000000000000000
  0.4166666666666666  0.4166666666666666  0.5833333333333334
  0.3333333333333334  0.5000000000000000  0.3333333333333333
  0.4166666666666667  0.5833333333333334  0.4166666666666667
  0.5000000000000000  0.3333333333333333  0.3333333333333333
  0.5833333333333334  0.4166666666666666  0.4166666666666667
  0.5000000000000000  0.5000000000000000  0.4999999999999999
  0.5833333333333334  0.5833333333333334  0.5833333333333333
  0.3333333333333333  0.3333333333333333  0.8333333333333333
  0.4166666666666666  0.4166666666666666  0.9166666666666666
  0.3333333333333334  0.5000000000000000  0.6666666666666666
  0.4166666666666667  0.5833333333333334  0.7499999999999999
  0.5000000000000000  0.3333333333333333  0.6666666666666666
  0.5833333333333334  0.4166666666666666  0.7499999999999999
  0.5000000000000000  0.5000000000000000  0.8333333333333331
  0.5833333333333334  0.5833333333333334  0.9166666666666665
  0.3333333333333333  0.6666666666666666  0.1666666666666667
  0.4166666666666666  0.7500000000000000  0.2500000000000000
  0.3333333333333333  0.8333333333333333  0.0000000000000000
  0.4166666666666666  0.9166666666666666  0.0833333333333333
  0.4999999999999999  0.6666666666666666  0.0000000000000000
  0.5833333333333333  0.7500000000000000  0.0833333333333333
  0.4999999999999999  0.8333333333333333  0.1666666666666667
  0.5833333333333333  0.9166666666666666  0.2499999999999999
  0.3333333333333333  0.6666666666666666  0.4999999999999999
  0.4166666666666666  0.7500000000000000  0.5833333333333333
  0.3333333333333333  0.8333333333333333  0.3333333333333333
  0.4166666666666666  0.9166666666666666  0.4166666666666667
  0.4999999999999999  0.6666666666666666  0.3333333333333333
  0.5833333333333333  0.7500000000000000  0.4166666666666667
  0.4999999999999999  0.8333333333333333  0.4999999999999999
  0.5833333333333333  0.9166666666666666  0.5833333333333333
  0.3333333333333333  0.6666666666666666  0.8333333333333333
  0.4166666666666666  0.7500000000000000  0.9166666666666666
  0.3333333333333333  0.8333333333333333  0.6666666666666666
  0.4166666666666666  0.9166666666666666  0.7500000000000000
  0.4999999999999999  0.6666666666666666  0.6666666666666666
  0.5833333333333333  0.7500000000000000  0.7500000000000000
  0.4999999999999999  0.8333333333333333  0.8333333333333334
  0.5833333333333333  0.9166666666666666  0.9166666666666666
  0.6666666666666666  0.0000000000000000  0.1666666666666667
  0.7500000000000000  0.0833333333333333  0.2500000000000000
  0.6666666666666666  0.1666666666666667  0.0000000000000000
  0.7499999999999999  0.2500000000000000  0.0833333333333333
  0.8333333333333333  0.0000000000000000  0.0000000000000000
  0.9166666666666666  0.0833333333333333  0.0833333333333333
  0.8333333333333333  0.1666666666666667  0.1666666666666667
  0.9166666666666666  0.2500000000000000  0.2500000000000000
  0.6666666666666666  0.0000000000000000  0.5000000000000000
  0.7500000000000000  0.0833333333333333  0.5833333333333334
  0.6666666666666666  0.1666666666666667  0.3333333333333333
  0.7499999999999999  0.2500000000000000  0.4166666666666667
  0.8333333333333333  0.0000000000000000  0.3333333333333333
  0.9166666666666666  0.0833333333333333  0.4166666666666667
  0.8333333333333333  0.1666666666666667  0.4999999999999999
  0.9166666666666666  0.2500000000000000  0.5833333333333333
  0.6666666666666666  0.0000000000000000  0.8333333333333333
  0.7500000000000000  0.0833333333333333  0.9166666666666666
  0.6666666666666666  0.1666666666666667  0.6666666666666666
  0.7499999999999999  0.2500000000000000  0.7499999999999999
  0.8333333333333333  0.0000000000000000  0.6666666666666666
  0.9166666666666666  0.0833333333333333  0.7499999999999999
  0.8333333333333333  0.1666666666666667  0.8333333333333331
  0.9166666666666666  0.2500000000000000  0.9166666666666665
  0.6666666666666666  0.3333333333333333  0.1666666666666667
  0.7500000000000000  0.4166666666666666  0.2500000000000000
  0.6666666666666666  0.5000000000000000  0.0000000000000000
  0.7499999999999999  0.5833333333333334  0.0833333333333333
  0.8333333333333333  0.3333333333333333  0.0000000000000000
  0.9166666666666666  0.4166666666666666  0.0833333333333333
  0.8333333333333333  0.5000000000000000  0.1666666666666667
  0.9166666666666666  0.5833333333333334  0.2499999999999999
  0.6666666666666666  0.3333333333333333  0.4999999999999999
  0.7500000000000000  0.4166666666666666  0.5833333333333333
  0.6666666666666666  0.5000000000000000  0.3333333333333333
  0.7499999999999999  0.5833333333333334  0.4166666666666667
  0.8333333333333333  0.3333333333333333  0.3333333333333333
  0.9166666666666666  0.4166666666666666  0.4166666666666667
  0.8333333333333333  0.5000000000000000  0.4999999999999999
  0.9166666666666666  0.5833333333333334  0.5833333333333333
  0.6666666666666666  0.3333333333333333  0.8333333333333333
  0.7500000000000000  0.4166666666666666  0.9166666666666666
  0.6666666666666666  0.5000000000000000  0.6666666666666666
  0.7499999999999999  0.5833333333333334  0.7500000000000000
  0.8333333333333333  0.3333333333333333  0.6666666666666666
  0.9166666666666666  0.4166666666666666  0.7500000000000000
  0.8333333333333333  0.5000000000000000  0.8333333333333334
  0.9166666666666666  0.5833333333333334  0.9166666666666666
  0.6666666666666666  0.6666666666666666  0.1666666666666667
  0.7500000000000000  0.7500000000000000  0.2499999999999999
  0.6666666666666666  0.8333333333333333  0.0000000000000000
  0.7499999999999999  0.9166666666666666  0.0833333333333333
  0.8333333333333333  0.6666666666666666  0.0000000000000000
  0.9166666666666666  0.7500000000000000  0.0833333333333333
  0.8333333333333333  0.8333333333333333  0.1666666666666667
  0.9166666666666666  0.9166666666666666  0.2499999999999999
  0.6666666666666666  0.6666666666666666  0.4999999999999999
  0.7500000000000000  0.7500000000000000  0.5833333333333333
  0.6666666666666666  0.8333333333333333  0.3333333333333333
  0.7499999999999999  0.9166666666666666  0.4166666666666666
  0.8333333333333333  0.6666666666666666  0.3333333333333333
  0.9166666666666666  0.7500000000000000  0.4166666666666666
  0.8333333333333333  0.8333333333333333  0.4999999999999999
  0.9166666666666666  0.9166666666666666  0.5833333333333333
  0.6666666666666666  0.6666666666666666  0.8333333333333333
  0.7500000000000000  0.7500000000000000  0.9166666666666666
  0.6666666666666666  0.8333333333333333  0.6666666666666666
  0.7499999999999999  0.9166666666666666  0.7500000000000000
  0.8333333333333333  0.6666666666666666  0.6666666666666666
  0.9166666666666666  0.7500000000000000  0.7500000000000000
  0.8333333333333333  0.8333333333333333  0.8333333333333334
  0.9166666666666666  0.9166666666666666  0.9166666666666666
Cartesian
  0.0000000000000000  0.0000000000000000  0.0000000000000000
  0.0000000000000000  0.0000000000000000  0.0000000000000000
  0.0000000000000000  0.0000000000000000  0.0000000000000000
  0.0000000000000000  0.0000000000000000  0.0000000000000000
  0.0000000000000000  0.0000000000000000  0.0000000000000000
  0.0000000000000000  0.0000000000000000  0.0000000000000000
  0.0000000000000000  0.0000000000000000  0.0000000000000000
  0.0000000000000000  0.0000000000000000  0.0000000000000000
  0.0000000000000000  0.0000000000000000  0.0000000000000000
  0.0000000000000000  0.0000000000000000  0.0000000000000000
  0.0000000000000000  0.0000000000000000  0.0000000000000000
  0.0000000000000000  0.0000000000000000  0.0000000000000000
  0.0000000000000000  0.0000000000000000  0.0000000000000000
  0.0000000000000000  0.0000000000000000  0.0000000000000000
  0.0000000000000000  0.0000000000000000  0.0000000000000000
  0.0000000000000000  0.0000000000000000  0.0000000000000000
  0.0000000000000000  0.0000000000000000  0.0000000000000000
  0.0000000000000000  0.0000000000000000  0.0000000000000000
  0.0000000000000000  0.0000000000000000  0.0000000000000000
  0.0000000000000000  0.0000000000000000  0.0000000000000000
  0.0000000000000000  0.0000000000000000  0.0000000000000000
  0.0000000000000000  0.0000000000000000  0.0000000000000000
  0.0000000000000000  0.0000000000000000  0.0000000000000000
  0.0000000000000000  0.0000000000000000  0.0000000000000000
  0.0000000000000000  0.0000000000000000  0.0000000000000000
  0.0000000000000000  0.0000000000000000  0.0000000000000000
  0.0000000000000000  0.0000000000000000  0.0000000000000000
  0.0000000000000000  0.0000000000000000  0.0000000000000000
  0.0000000000000000  0.0000000000000000  0.0000000000000000
  0.0000000000000000  0.0000000000000000  0.0000000000000000
  0.0000000000000000  0.0000000000000000  0.0000000000000000
  0.0000000000000000  0.0000000000000000  0.0000000000000000
  0.0000000000000000  0.0000000000000000  0.0000000000000000
  0.0000000000000000  0.0000000000000000  0.0000000000000000
  0.0000000000000000  0.0000000000000000  0.0000000000000000
  0.0000000000000000  0.0000000000000000  0.0000000000000000
  0.0000000000000000  0.0000000000000000  0.0000000000000000
  0.0000000000000000  0.0000000000000000  0.0000000000000000
  0.0000000000000000  0.0000000000000000  0.0000000000000000
  0.0000000000000000  0.0000000000000000  0.0000000000000000
  0.0000000000000000  0.0000000000000000  0.0000000000000000
  0.0000000000000000  0.0000000000000000  0.0000000000000000
  0.0000000000000000  0.0000000000000000  0.0000000000000000
  0.0000000000000000  0.0000000000000000  0.0000000000000000
  0.0000000000000000  0.0000000000000000  0.0000000000000000
  0.0000000000000000  0.0000000000000000  0.0000000000000000
  0.0000000000000000  0.0000000000000000  0.0000000000000000
  0.0000000000000000  0.0000000000000000  0.0000000000000000
  0.0000000000000000  0.0000000000000000  0.0000000000000000
  0.0000000000000000  0.0000000000000000  0.0000000000000000
  0.0000000000000000  0.0000000000000000  0.0000000000000000
  0.0000000000000000  0.0000000000000000  0.0000000000000000
  0.0000000000000000  0.0000000000000000  0.0000000000000000
  0.0000000000000000  0.0000000000000000  0.0000000000000000
  0.0000000000000000  0.0000000000000000  0.0000000000000000
  0.0000000000000000  0.0000000000000000  0.0000000000000000
  0.0000000000000000  0.0000000000000000  0.0000000000000000
  0.0000000000000000  0.0000000000000000  0.0000000000000000
  0.0000000000000000  0.0000000000000000  0.0000000000000000
  0.0000000000000000  0.0000000000000000  0.0000000000000000
  0.0000000000000000  0.0000000000000000  0.0000000000000000
  0.0000000000000000  0.0000000000000000  0.0000000000000000
  0.0000000000000000  0.0000000000000000  0.0000000000000000
  0.0000000000000000  0.0000000000000000  0.0000000000000000
  0.0000000000000000  0.0000000000000000  0.0000000000000000
  0.0000000000000000  0.0000000000000000  0.0000000000000000
  0.0000000000000000  0.0000000000000000  0.0000000000000000
  0.0000000000000000  0.0000000000000000  0.0000000000000000
  0.0000000000000000  0.0000000000000000  0.0000000000000000
  0.0000000000000000  0.0000000000000000  0.0000000000000000
  0.0000000000000000  0.0000000000000000  0.0000000000000000
  0.0000000000000000  0.0000000000000000  0.0000000000000000
  0.0000000000000000  0.0000000000000000  0.0000000000000000
  0.0000000000000000  0.0000000000000000  0.0000000000000000
  0.0000000000000000  0.0000000000000000  0.0000000000000000
  0.0000000000000000  0.0000000000000000  0.0000000000000000
  0.0000000000000000  0.0000000000000000  0.0000000000000000
  0.0000000000000000  0.0000000000000000  0.0000000000000000
  0.0000000000000000  0.0000000000000000  0.0000000000000000
  0.0000000000000000  0.0000000000000000  0.0000000000000000
  0.0000000000000000  0.0000000000000000  0.0000000000000000
  0.0000000000000000  0.0000000000000000  0.0000000000000000
  0.0000000000000000  0.0000000000000000  0.0000000000000000
  0.0000000000000000  0.0000000000000000  0.0000000000000000
  0.0000000000000000  0.0000000000000000  0.0000000000000000
  0.0000000000000000  0.0000000000000000  0.0000000000000000
  0.0000000000000000  0.0000000000000000  0.0000000000000000
  0.0000000000000000  0.0000000000000000  0.0000000000000000
  0.0000000000000000  0.0000000000000000  0.0000000000000000
  0.0000000000000000  0.0000000000000000  0.0000000000000000
  0.0000000000000000  0.0000000000000000  0.0000000000000000
  0.0000000000000000  0.0000000000000000  0.0000000000000000
  0.0000000000000000  0.0000000000000000  0.0000000000000000
  0.0000000000000000  0.0000000000000000  0.0000000000000000
  0.0000000000000000  0.0000000000000000  0.0000000000000000
  0.0000000000000000  0.0000000000000000  0.0000000000000000
  0.0000000000000000  0.0000000000000000  0.0000000000000000
  0.0000000000000000  0.0000000000000000  0.0000000000000000
  0.0000000000000000  0.0000000000000000  0.0000000000000000
  0.0000000000000000  0.0000000000000000  0.0000000000000000
  0.0000000000000000  0.0000000000000000  0.0000000000000000
  0.0000000000000000  0.0000000000000000  0.0000000000000000
  0.0000000000000000  0.0000000000000000  0.0000000000000000
  0.0000000000000000  0.0000000000000000  0.0000000000000000
  0.0000000000000000  0.0000000000000000  0.0000000000000000
  0.0000000000000000  0.0000000000000000  0.0000000000000000
  0.0000000000000000  0.0000000000000000  0.0000000000000000
  0.0000000000000000  0.0000000000000000  0.0000000000000000
  0.0000000000000000  0.0000000000000000  0.0000000000000000
  0.0000000000000000  0.0000000000000000  0.0000000000000000
  0.0000000000000000  0.0000000000000000  0.0000000000000000
  0.0000000000000000  0.0000000000000000  0.0000000000000000
  0.0000000000000000  0.0000000000000000  0.0000000000000000
  0.0000000000000000  0.0000000000000000  0.0000000000000000
  0.0000000000000000  0.0000000000000000  0.0000000000000000
  0.0000000000000000  0.0000000000000000  0.0000000000000000
  0.0000000000000000  0.0000000000000000  0.0000000000000000
  0.0000000000000000  0.0000000000000000  0.0000000000000000
  0.0000000000000000  0.0000000000000000  0.0000000000000000
  0.0000000000000000  0.0000000000000000  0.0000000000000000
  0.0000000000000000  0.0000000000000000  0.0000000000000000
  0.0000000000000000  0.0000000000000000  0.0000000000000000
  0.0000000000000000  0.0000000000000000  0.0000000000000000
  0.0000000000000000  0.0000000000000000  0.0000000000000000
  0.0000000000000000  0.0000000000000000  0.0000000000000000
  0.0000000000000000  0.0000000000000000  0.0000000000000000
  0.0000000000000000  0.0000000000000000  0.0000000000000000
  0.0000000000000000  0.0000000000000000  0.0000000000000000
  0.0000000000000000  0.0000000000000000  0.0000000000000000
  0.0000000000000000  0.0000000000000000  0.0000000000000000
  0.0000000000000000  0.0000000000000000  0.0000000000000000
  0.0000000000000000  0.0000000000000000  0.0000000000000000
  0.0000000000000000  0.0000000000000000  0.0000000000000000
  0.0000000000000000  0.0000000000000000  0.0000000000000000
  0.0000000000000000  0.0000000000000000  0.0000000000000000
  0.0000000000000000  0.0000000000000000  0.0000000000000000
  0.0000000000000000  0.0000000000000000  0.0000000000000000
  0.0000000000000000  0.0000000000000000  0.0000000000000000
  0.0000000000000000  0.0000000000000000  0.0000000000000000
  0.0000000000000000  0.0000000000000000  0.0000000000000000
  0.0000000000000000  0.0000000000000000  0.0000000000000000
  0.0000000000000000  0.0000000000000000  0.0000000000000000
  0.0000000000000000  0.0000000000000000  0.0000000000000000
  0.0000000000000000  0.0000000000000000  0.0000000000000000
  0.0000000000000000  0.0000000000000000  0.0000000000000000
  0.0000000000000000  0.0000000000000000  0.0000000000000000
  0.0000000000000000  0.0000000000000000  0.0000000000000000
  0.0000000000000000  0.0000000000000000  0.0000000000000000
  0.0000000000000000  0.0000000000000000  0.0000000000000000
  0.0000000000000000  0.0000000000000000  0.0000000000000000
  0.0000000000000000  0.0000000000000000  0.0000000000000000
  0.0000000000000000  0.0000000000000000  0.0000000000000000
  0.0000000000000000  0.0000000000000000  0.0000000000000000
  0.0000000000000000  0.0000000000000000  0.0000000000000000
  0.0000000000000000  0.0000000000000000  0.0000000000000000
  0.0000000000000000  0.0000000000000000  0.0000000000000000
  0.0000000000000000  0.0000000000000000  0.0000000000000000
  0.0000000000000000  0.0000000000000000  0.0000000000000000
  0.0000000000000000  0.0000000000000000  0.0000000000000000
  0.0000000000000000  0.0000000000000000  0.0000000000000000
  0.0000000000000000  0.0000000000000000  0.0000000000000000
  0.0000000000000000  0.0000000000000000  0.0000000000000000
  0.0000000000000000  0.0000000000000000  0.0000000000000000
  0.0000000000000000  0.0000000000000000  0.0000000000000000
  0.0000000000000000  0.0000000000000000  0.0000000000000000
  0.0000000000000000  0.0000000000000000  0.0000000000000000
  0.0000000000000000  0.0000000000000000  0.0000000000000000
  0.0000000000000000  0.0000000000000000  0.0000000000000000
  0.0000000000000000  0.0000000000000000  0.0000000000000000
  0.0000000000000000  0.0000000000000000  0.0000000000000000
  0.0000000000000000  0.0000000000000000  0.0000000000000000
  0.0000000000000000  0.0000000000000000  0.0000000000000000
  0.0000000000000000  0.0000000000000000  0.0000000000000000
  0.0000000000000000  0.0000000000000000  0.0000000000000000
  0.0000000000000000  0.0000000000000000  0.0000000000000000
  0.0000000000000000  0.0000000000000000  0.0000000000000000
  0.0000000000000000  0.0000000000000000  0.0000000000000000
  0.0000000000000000  0.0000000000000000  0.0000000000000000
  0.0000000000000000  0.0000000000000000  0.0000000000000000
  0.0000000000000000  0.0000000000000000  0.0000000000000000
  0.0000000000000000  0.0000000000000000  0.0000000000000000
  0.0000000000000000  0.0000000000000000  0.0000000000000000
  0.0000000000000000  0.0000000000000000  0.0000000000000000
  0.0000000000000000  0.0000000000000000  0.0000000000000000
  0.0000000000000000  0.0000000000000000  0.0000000000000000
  0.0000000000000000  0.0000000000000000  0.0000000000000000
  0.0000000000000000  0.0000000000000000  0.0000000000000000
  0.0000000000000000  0.0000000000000000  0.0000000000000000
  0.0000000000000000  0.0000000000000000  0.0000000000000000
  0.0000000000000000  0.0000000000000000  0.0000000000000000
  0.0000000000000000  0.0000000000000000  0.0000000000000000
  0.0000000000000000  0.0000000000000000  0.0000000000000000
  0.0000000000000000  0.0000000000000000  0.0000000000000000
  0.0000000000000000  0.0000000000000000  0.0000000000000000
  0.0000000000000000  0.0000000000000000  0.0000000000000000
  0.0000000000000000  0.0000000000000000  0.0000000000000000
  0.0000000000000000  0.0000000000000000  0.0000000000000000
  0.0000000000000000  0.0000000000000000  0.0000000000000000
  0.0000000000000000  0.0000000000000000  0.0000000000000000
  0.0000000000000000  0.0000000000000000  0.0000000000000000
  0.0000000000000000  0.0000000000000000  0.0000000000000000
  0.0000000000000000  0.0000000000000000  0.0000000000000000
  0.0000000000000000  0.0000000000000000  0.0000000000000000
  0.0000000000000000  0.0000000000000000  0.0000000000000000
  0.0000000000000000  0.0000000000000000  0.0000000000000000
  0.0000000000000000  0.0000000000000000  0.0000000000000000
  0.0000000000000000  0.0000000000000000  0.0000000000000000
  0.0000000000000000  0.0000000000000000  0.0000000000000000
  0.0000000000000000  0.0000000000000000  0.0000000000000000
  0.0000000000000000  0.0000000000000000  0.0000000000000000
  0.0000000000000000  0.0000000000000000  0.0000000000000000
  0.0000000000000000  0.0000000000000000  0.0000000000000000
  0.0000000000000000  0.0000000000000000  0.0000000000000000
  0.0000000000000000  0.0000000000000000  0.0000000000000000
  0.0000000000000000  0.0000000000000000  0.0000000000000000
  0.0000000000000000  0.0000000000000000  0.0000000000000000
