0.030  10  10  10   47  0.050   94    6   21    7   23   18   15   10           # Parameters to Generate KPOINTS (Do NOT Edit This Line)
   141
Reciprocal lattice
    0.00000000000000    0.00000000000000    0.00000000000000     1
    0.10000000000000    0.00000000000000    0.00000000000000     8
    0.20000000000000    0.00000000000000    0.00000000000000     8
    0.30000000000000    0.00000000000000    0.00000000000000     8
    0.40000000000000    0.00000000000000    0.00000000000000     8
    0.50000000000000    0.00000000000000    0.00000000000000     4
    0.10000000000000    0.10000000000000    0.00000000000000     6
    0.20000000000000    0.10000000000000    0.00000000000000    24
    0.30000000000000    0.10000000000000    0.00000000000000    24
    0.40000000000000    0.10000000000000    0.00000000000000    24
    0.50000000000000    0.10000000000000    0.00000000000000    24
   -0.40000000000000    0.10000000000000    0.00000000000000    24
   -0.30000000000000    0.10000000000000    0.00000000000000    24
   -0.20000000000000    0.10000000000000    0.00000000000000    24
   -0.10000000000000    0.10000000000000    0.00000000000000    12
    0.20000000000000    0.20000000000000    0.00000000000000     6
    0.30000000000000    0.20000000000000    0.00000000000000    24
    0.40000000000000    0.20000000000000    0.00000000000000    24
    0.50000000000000    0.20000000000000    0.00000000000000    24
   -0.40000000000000    0.20000000000000    0.00000000000000    24
   -0.30000000000000    0.20000000000000    0.00000000000000    24
   -0.20000000000000    0.20000000000000    0.00000000000000    12
    0.30000000000000    0.30000000000000    0.00000000000000     6
    0.40000000000000    0.30000000000000    0.00000000000000    24
    0.50000000000000    0.30000000000000    0.00000000000000    24
   -0.40000000000000    0.30000000000000    0.00000000000000    24
   -0.30000000000000    0.30000000000000    0.00000000000000    12
    0.40000000000000    0.40000000000000    0.00000000000000     6
    0.50000000000000    0.40000000000000    0.00000000000000    24
   -0.40000000000000    0.40000000000000    0.00000000000000    12
    0.50000000000000    0.50000000000000    0.00000000000000     3
    0.30000000000000    0.20000000000000    0.10000000000000    24
    0.40000000000000    0.20000000000000    0.10000000000000    48
    0.50000000000000    0.20000000000000    0.10000000000000    48
   -0.40000000000000    0.20000000000000    0.10000000000000    24
    0.40000000000000    0.30000000000000    0.10000000000000    24
    0.50000000000000    0.30000000000000    0.10000000000000    48
   -0.40000000000000    0.30000000000000    0.10000000000000    48
   -0.30000000000000    0.30000000000000    0.10000000000000    48
   -0.20000000000000    0.30000000000000    0.10000000000000    24
    0.50000000000000    0.40000000000000    0.10000000000000    24
   -0.40000000000000    0.40000000000000    0.10000000000000    48
   -0.30000000000000    0.40000000000000    0.10000000000000    24
   -0.40000000000000    0.50000000000000    0.10000000000000    12
   -0.40000000000000    0.40000000000000    0.20000000000000    24
   -0.30000000000000    0.40000000000000    0.20000000000000    24
   -0.30000000000000    0.50000000000000    0.20000000000000    12
    0.00000000000000    0.00000000000000    0.00000000000000     0
    0.02500000000000    0.00000000000000    0.02500000000000     0
    0.05000000000000    0.00000000000000    0.05000000000000     0
    0.07500000000000    0.00000000000000    0.07500000000000     0
    0.10000000000000    0.00000000000000    0.10000000000000     0
    0.12500000000000    0.00000000000000    0.12500000000000     0
    0.15000000000000    0.00000000000000    0.15000000000000     0
    0.17500000000000    0.00000000000000    0.17500000000000     0
    0.20000000000000    0.00000000000000    0.20000000000000     0
    0.22500000000000    0.00000000000000    0.22500000000000     0
    0.25000000000000    0.00000000000000    0.25000000000000     0
    0.27500000000000    0.00000000000000    0.27500000000000     0
    0.30000000000000    0.00000000000000    0.30000000000000     0
    0.32500000000000    0.00000000000000    0.32500000000000     0
    0.35000000000000    0.00000000000000    0.35000000000000     0
    0.37500000000000    0.00000000000000    0.37500000000000     0
    0.40000000000000    0.00000000000000    0.40000000000000     0
    0.42500000000000    0.00000000000000    0.42500000000000     0
    0.45000000000000    0.00000000000000    0.45000000000000     0
    0.47500000000000    0.00000000000000    0.47500000000000     0
    0.50000000000000    0.00000000000000    0.50000000000000     0
    0.50000000000000    0.00000000000000    0.50000000000000     0
    0.52083333333333    0.04166666666667    0.52083333333333     0
    0.54166666666667    0.08333333333333    0.54166666666667     0
    0.56250000000000    0.12500000000000    0.56250000000000     0
    0.58333333333333    0.16666666666667    0.58333333333333     0
    0.60416666666667    0.20833333333333    0.60416666666667     0
    0.62500000000000    0.25000000000000    0.62500000000000     0
    0.37500000000000    0.37500000000000    0.75000000000000     0
    0.35795454545455    0.35795454545455    0.71590909090909     0
    0.34090909090909    0.34090909090909    0.68181818181818     0
    0.32386363636364    0.32386363636364    0.64772727272727     0
    0.30681818181818    0.30681818181818    0.61363636363636     0
    0.28977272727273    0.28977272727273    0.57954545454545     0
    0.27272727272727    0.27272727272727    0.54545454545455     0
    0.25568181818182    0.25568181818182    0.51136363636364     0
    0.23863636363636    0.23863636363636    0.47727272727273     0
    0.22159090909091    0.22159090909091    0.44318181818182     0
    0.20454545454545    0.20454545454545    0.40909090909091     0
    0.18750000000000    0.18750000000000    0.37500000000000     0
    0.17045454545455    0.17045454545455    0.34090909090909     0
    0.15340909090909    0.15340909090909    0.30681818181818     0
    0.13636363636364    0.13636363636364    0.27272727272727     0
    0.11931818181818    0.11931818181818    0.23863636363636     0
    0.10227272727273    0.10227272727273    0.20454545454545     0
    0.08522727272727    0.08522727272727    0.17045454545455     0
    0.06818181818182    0.06818181818182    0.13636363636364     0
    0.05113636363636    0.05113636363636    0.10227272727273     0
    0.03409090909091    0.03409090909091    0.06818181818182     0
    0.01704545454545    0.01704545454545    0.03409090909091     0
    0.00000000000000    0.00000000000000    0.00000000000000     0
    0.00000000000000    0.00000000000000    0.00000000000000     0
    0.02941176470588    0.02941176470588    0.02941176470588     0
    0.05882352941176    0.05882352941176    0.05882352941176     0
    0.08823529411765    0.08823529411765    0.08823529411765     0
    0.11764705882353    0.11764705882353    0.11764705882353     0
    0.14705882352941    0.14705882352941    0.14705882352941     0
    0.17647058823529    0.17647058823529    0.17647058823529     0
    0.20588235294118    0.20588235294118    0.20588235294118     0
    0.23529411764706    0.23529411764706    0.23529411764706     0
    0.26470588235294    0.26470588235294    0.26470588235294     0
    0.29411764705882    0.29411764705882    0.29411764705882     0
    0.32352941176471    0.32352941176471    0.32352941176471     0
    0.35294117647059    0.35294117647059    0.35294117647059     0
    0.38235294117647    0.38235294117647    0.38235294117647     0
    0.41176470588235    0.41176470588235    0.41176470588235     0
    0.44117647058824    0.44117647058824    0.44117647058824     0
    0.47058823529412    0.47058823529412    0.47058823529412     0
    0.50000000000000    0.50000000000000    0.50000000000000     0
    0.50000000000000    0.50000000000000    0.50000000000000     0
    0.50000000000000    0.48214285714286    0.51785714285714     0
    0.50000000000000    0.46428571428571    0.53571428571429     0
    0.50000000000000    0.44642857142857    0.55357142857143     0
    0.50000000000000    0.42857142857143    0.57142857142857     0
    0.50000000000000    0.41071428571429    0.58928571428571     0
    0.50000000000000    0.39285714285714    0.60714285714286     0
    0.50000000000000    0.37500000000000    0.62500000000000     0
    0.50000000000000    0.35714285714286    0.64285714285714     0
    0.50000000000000    0.33928571428571    0.66071428571429     0
    0.50000000000000    0.32142857142857    0.67857142857143     0
    0.50000000000000    0.30357142857143    0.69642857142857     0
    0.50000000000000    0.28571428571429    0.71428571428571     0
    0.50000000000000    0.26785714285714    0.73214285714286     0
    0.50000000000000    0.25000000000000    0.75000000000000     0
    0.50000000000000    0.25000000000000    0.75000000000000     0
    0.50000000000000    0.22222222222222    0.72222222222222     0
    0.50000000000000    0.19444444444444    0.69444444444444     0
    0.50000000000000    0.16666666666667    0.66666666666667     0
    0.50000000000000    0.13888888888889    0.63888888888889     0
    0.50000000000000    0.11111111111111    0.61111111111111     0
    0.50000000000000    0.08333333333333    0.58333333333333     0
    0.50000000000000    0.05555555555556    0.55555555555556     0
    0.50000000000000    0.02777777777778    0.52777777777778     0
    0.50000000000000    0.00000000000000    0.50000000000000     0
